*Heading
** Job name: Job-1 Model name: Model-1
** Generated by: Abaqus/CAE Learning Edition 2024
*Preprint, echo=NO, model=NO, history=NO, contact=NO
**
** PARTS
**
*Part, name=Part-1
*End Part
**  
**
** ASSEMBLY
**
*Assembly, name=Assembly
**  
*Instance, name=Part-1-1, part=Part-1
*Node
      1,         -90.,         209.,        6000.
      2,           0.,         209.,        6000.
      3,           0.,         209.,        3000.
      4,           0.,         209.,           0.
      5,         -90.,         209.,           0.
      6,           0.,           0.,        6000.
      7,           0.,           0.,           0.
      8,        -100.,           0.,        6000.
      9,        -100.,           0.,           0.
     10,         100.,           0.,        6000.
     11,         100.,           0.,           0.
     12,          90.,         209.,        6000.
     13,          90.,         209.,           0.
     14,           0.,         209.,   5934.78271
     15,           0.,         209.,   5869.56543
     16,           0.,         209.,   5804.34766
     17,           0.,         209.,   5739.13037
     18,           0.,         209.,   5673.91309
     19,           0.,         209.,    5608.6958
     20,           0.,         209.,   5543.47803
     21,           0.,         209.,   5478.26074
     22,           0.,         209.,   5413.04346
     23,           0.,         209.,   5347.82617
     24,           0.,         209.,   5282.60889
     25,           0.,         209.,   5217.39111
     26,           0.,         209.,   5152.17383
     27,           0.,         209.,   5086.95654
     28,           0.,         209.,   5021.73926
     29,           0.,         209.,   4956.52197
     30,           0.,         209.,    4891.3042
     31,           0.,         209.,   4826.08691
     32,           0.,         209.,   4760.86963
     33,           0.,         209.,   4695.65234
     34,           0.,         209.,   4630.43457
     35,           0.,         209.,   4565.21729
     36,           0.,         209.,        4500.
     37,           0.,         209.,   4434.78271
     38,           0.,         209.,   4369.56543
     39,           0.,         209.,   4304.34766
     40,           0.,         209.,   4239.13037
     41,           0.,         209.,   4173.91309
     42,           0.,         209.,    4108.6958
     43,           0.,         209.,   4043.47827
     44,           0.,         209.,   3978.26099
     45,           0.,         209.,   3913.04346
     46,           0.,         209.,   3847.82617
     47,           0.,         209.,   3782.60864
     48,           0.,         209.,   3717.39136
     49,           0.,         209.,   3652.17383
     50,           0.,         209.,   3586.95654
     51,           0.,         209.,   3521.73901
     52,           0.,         209.,   3456.52173
     53,           0.,         209.,   3391.30444
     54,           0.,         209.,   3326.08691
     55,           0.,         209.,   3260.86963
     56,           0.,         209.,    3195.6521
     57,           0.,         209.,   3130.43481
     58,           0.,         209.,   3065.21729
     59,           0.,         209.,   2934.78271
     60,           0.,         209.,   2869.56519
     61,           0.,         209.,    2804.3479
     62,           0.,         209.,   2739.13037
     63,           0.,         209.,   2673.91309
     64,           0.,         209.,   2608.69556
     65,           0.,         209.,   2543.47827
     66,           0.,         209.,   2478.26099
     67,           0.,         209.,   2413.04346
     68,           0.,         209.,   2347.82617
     69,           0.,         209.,   2282.60864
     70,           0.,         209.,   2217.39136
     71,           0.,         209.,   2152.17383
     72,           0.,         209.,   2086.95654
     73,           0.,         209.,   2021.73914
     74,           0.,         209.,   1956.52173
     75,           0.,         209.,   1891.30432
     76,           0.,         209.,   1826.08691
     77,           0.,         209.,   1760.86951
     78,           0.,         209.,   1695.65222
     79,           0.,         209.,   1630.43481
     80,           0.,         209.,   1565.21741
     81,           0.,         209.,        1500.
     82,           0.,         209.,   1434.78259
     83,           0.,         209.,   1369.56519
     84,           0.,         209.,   1304.34778
     85,           0.,         209.,   1239.13049
     86,           0.,         209.,   1173.91309
     87,           0.,         209.,   1108.69568
     88,           0.,         209.,   1043.47827
     89,           0.,         209.,   978.260864
     90,           0.,         209.,   913.043457
     91,           0.,         209.,   847.826111
     92,           0.,         209.,   782.608704
     93,           0.,         209.,   717.391296
     94,           0.,         209.,   652.173889
     95,           0.,         209.,   586.956543
     96,           0.,         209.,   521.739136
     97,           0.,         209.,   456.521729
     98,           0.,         209.,   391.304352
     99,           0.,         209.,   326.086945
    100,           0.,         209.,   260.869568
    101,           0.,         209.,   195.652176
    102,           0.,         209.,   130.434784
    103,           0.,         209.,    65.217392
    104,         -90.,         209.,    65.217392
    105,         -90.,         209.,   130.434784
    106,         -90.,         209.,   195.652176
    107,         -90.,         209.,   260.869568
    108,         -90.,         209.,   326.086945
    109,         -90.,         209.,   391.304352
    110,         -90.,         209.,   456.521729
    111,         -90.,         209.,   521.739136
    112,         -90.,         209.,   586.956543
    113,         -90.,         209.,   652.173889
    114,         -90.,         209.,   717.391296
    115,         -90.,         209.,   782.608704
    116,         -90.,         209.,   847.826111
    117,         -90.,         209.,   913.043457
    118,         -90.,         209.,   978.260864
    119,         -90.,         209.,   1043.47827
    120,         -90.,         209.,   1108.69568
    121,         -90.,         209.,   1173.91309
    122,         -90.,         209.,   1239.13049
    123,         -90.,         209.,   1304.34778
    124,         -90.,         209.,   1369.56519
    125,         -90.,         209.,   1434.78259
    126,         -90.,         209.,        1500.
    127,         -90.,         209.,   1565.21741
    128,         -90.,         209.,   1630.43481
    129,         -90.,         209.,   1695.65222
    130,         -90.,         209.,   1760.86951
    131,         -90.,         209.,   1826.08691
    132,         -90.,         209.,   1891.30432
    133,         -90.,         209.,   1956.52173
    134,         -90.,         209.,   2021.73914
    135,         -90.,         209.,   2086.95654
    136,         -90.,         209.,   2152.17383
    137,         -90.,         209.,   2217.39136
    138,         -90.,         209.,   2282.60864
    139,         -90.,         209.,   2347.82617
    140,         -90.,         209.,   2413.04346
    141,         -90.,         209.,   2478.26099
    142,         -90.,         209.,   2543.47827
    143,         -90.,         209.,   2608.69556
    144,         -90.,         209.,   2673.91309
    145,         -90.,         209.,   2739.13037
    146,         -90.,         209.,    2804.3479
    147,         -90.,         209.,   2869.56519
    148,         -90.,         209.,   2934.78271
    149,         -90.,         209.,        3000.
    150,         -90.,         209.,   3065.21729
    151,         -90.,         209.,   3130.43481
    152,         -90.,         209.,    3195.6521
    153,         -90.,         209.,   3260.86963
    154,         -90.,         209.,   3326.08691
    155,         -90.,         209.,   3391.30444
    156,         -90.,         209.,   3456.52173
    157,         -90.,         209.,   3521.73901
    158,         -90.,         209.,   3586.95654
    159,         -90.,         209.,   3652.17383
    160,         -90.,         209.,   3717.39136
    161,         -90.,         209.,   3782.60864
    162,         -90.,         209.,   3847.82617
    163,         -90.,         209.,   3913.04346
    164,         -90.,         209.,   3978.26099
    165,         -90.,         209.,   4043.47827
    166,         -90.,         209.,    4108.6958
    167,         -90.,         209.,   4173.91309
    168,         -90.,         209.,   4239.13037
    169,         -90.,         209.,   4304.34766
    170,         -90.,         209.,   4369.56543
    171,         -90.,         209.,   4434.78271
    172,         -90.,         209.,        4500.
    173,         -90.,         209.,   4565.21729
    174,         -90.,         209.,   4630.43457
    175,         -90.,         209.,   4695.65234
    176,         -90.,         209.,   4760.86963
    177,         -90.,         209.,   4826.08691
    178,         -90.,         209.,    4891.3042
    179,         -90.,         209.,   4956.52197
    180,         -90.,         209.,   5021.73926
    181,         -90.,         209.,   5086.95654
    182,         -90.,         209.,   5152.17383
    183,         -90.,         209.,   5217.39111
    184,         -90.,         209.,   5282.60889
    185,         -90.,         209.,   5347.82617
    186,         -90.,         209.,   5413.04346
    187,         -90.,         209.,   5478.26074
    188,         -90.,         209.,   5543.47803
    189,         -90.,         209.,    5608.6958
    190,         -90.,         209.,   5673.91309
    191,         -90.,         209.,   5739.13037
    192,         -90.,         209.,   5804.34766
    193,         -90.,         209.,   5869.56543
    194,         -90.,         209.,   5934.78271
    195,           0.,   139.333328,        6000.
    196,           0.,   69.6666641,        6000.
    197,           0.,           0.,   5934.78271
    198,           0.,           0.,   5869.56543
    199,           0.,           0.,   5804.34766
    200,           0.,           0.,   5739.13037
    201,           0.,           0.,   5673.91309
    202,           0.,           0.,    5608.6958
    203,           0.,           0.,   5543.47803
    204,           0.,           0.,   5478.26074
    205,           0.,           0.,   5413.04346
    206,           0.,           0.,   5347.82617
    207,           0.,           0.,   5282.60889
    208,           0.,           0.,   5217.39111
    209,           0.,           0.,   5152.17383
    210,           0.,           0.,   5086.95654
    211,           0.,           0.,   5021.73926
    212,           0.,           0.,   4956.52197
    213,           0.,           0.,    4891.3042
    214,           0.,           0.,   4826.08691
    215,           0.,           0.,   4760.86963
    216,           0.,           0.,   4695.65234
    217,           0.,           0.,   4630.43457
    218,           0.,           0.,   4565.21729
    219,           0.,           0.,        4500.
    220,           0.,           0.,   4434.78271
    221,           0.,           0.,   4369.56543
    222,           0.,           0.,   4304.34766
    223,           0.,           0.,   4239.13037
    224,           0.,           0.,   4173.91309
    225,           0.,           0.,    4108.6958
    226,           0.,           0.,   4043.47827
    227,           0.,           0.,   3978.26099
    228,           0.,           0.,   3913.04346
    229,           0.,           0.,   3847.82617
    230,           0.,           0.,   3782.60864
    231,           0.,           0.,   3717.39136
    232,           0.,           0.,   3652.17383
    233,           0.,           0.,   3586.95654
    234,           0.,           0.,   3521.73901
    235,           0.,           0.,   3456.52173
    236,           0.,           0.,   3391.30444
    237,           0.,           0.,   3326.08691
    238,           0.,           0.,   3260.86963
    239,           0.,           0.,    3195.6521
    240,           0.,           0.,   3130.43481
    241,           0.,           0.,   3065.21729
    242,           0.,           0.,        3000.
    243,           0.,           0.,   2934.78271
    244,           0.,           0.,   2869.56519
    245,           0.,           0.,    2804.3479
    246,           0.,           0.,   2739.13037
    247,           0.,           0.,   2673.91309
    248,           0.,           0.,   2608.69556
    249,           0.,           0.,   2543.47827
    250,           0.,           0.,   2478.26099
    251,           0.,           0.,   2413.04346
    252,           0.,           0.,   2347.82617
    253,           0.,           0.,   2282.60864
    254,           0.,           0.,   2217.39136
    255,           0.,           0.,   2152.17383
    256,           0.,           0.,   2086.95654
    257,           0.,           0.,   2021.73914
    258,           0.,           0.,   1956.52173
    259,           0.,           0.,   1891.30432
    260,           0.,           0.,   1826.08691
    261,           0.,           0.,   1760.86951
    262,           0.,           0.,   1695.65222
    263,           0.,           0.,   1630.43481
    264,           0.,           0.,   1565.21741
    265,           0.,           0.,        1500.
    266,           0.,           0.,   1434.78259
    267,           0.,           0.,   1369.56519
    268,           0.,           0.,   1304.34778
    269,           0.,           0.,   1239.13049
    270,           0.,           0.,   1173.91309
    271,           0.,           0.,   1108.69568
    272,           0.,           0.,   1043.47827
    273,           0.,           0.,   978.260864
    274,           0.,           0.,   913.043457
    275,           0.,           0.,   847.826111
    276,           0.,           0.,   782.608704
    277,           0.,           0.,   717.391296
    278,           0.,           0.,   652.173889
    279,           0.,           0.,   586.956543
    280,           0.,           0.,   521.739136
    281,           0.,           0.,   456.521729
    282,           0.,           0.,   391.304352
    283,           0.,           0.,   326.086945
    284,           0.,           0.,   260.869568
    285,           0.,           0.,   195.652176
    286,           0.,           0.,   130.434784
    287,           0.,           0.,    65.217392
    288,           0.,   69.6666641,           0.
    289,           0.,   139.333328,           0.
    290,         -50.,           0.,        6000.
    291,        -100.,           0.,   5934.78271
    292,        -100.,           0.,   5869.56543
    293,        -100.,           0.,   5804.34766
    294,        -100.,           0.,   5739.13037
    295,        -100.,           0.,   5673.91309
    296,        -100.,           0.,    5608.6958
    297,        -100.,           0.,   5543.47803
    298,        -100.,           0.,   5478.26074
    299,        -100.,           0.,   5413.04346
    300,        -100.,           0.,   5347.82617
    301,        -100.,           0.,   5282.60889
    302,        -100.,           0.,   5217.39111
    303,        -100.,           0.,   5152.17383
    304,        -100.,           0.,   5086.95654
    305,        -100.,           0.,   5021.73926
    306,        -100.,           0.,   4956.52197
    307,        -100.,           0.,    4891.3042
    308,        -100.,           0.,   4826.08691
    309,        -100.,           0.,   4760.86963
    310,        -100.,           0.,   4695.65234
    311,        -100.,           0.,   4630.43457
    312,        -100.,           0.,   4565.21729
    313,        -100.,           0.,        4500.
    314,        -100.,           0.,   4434.78271
    315,        -100.,           0.,   4369.56543
    316,        -100.,           0.,   4304.34766
    317,        -100.,           0.,   4239.13037
    318,        -100.,           0.,   4173.91309
    319,        -100.,           0.,    4108.6958
    320,        -100.,           0.,   4043.47827
    321,        -100.,           0.,   3978.26099
    322,        -100.,           0.,   3913.04346
    323,        -100.,           0.,   3847.82617
    324,        -100.,           0.,   3782.60864
    325,        -100.,           0.,   3717.39136
    326,        -100.,           0.,   3652.17383
    327,        -100.,           0.,   3586.95654
    328,        -100.,           0.,   3521.73901
    329,        -100.,           0.,   3456.52173
    330,        -100.,           0.,   3391.30444
    331,        -100.,           0.,   3326.08691
    332,        -100.,           0.,   3260.86963
    333,        -100.,           0.,    3195.6521
    334,        -100.,           0.,   3130.43481
    335,        -100.,           0.,   3065.21729
    336,        -100.,           0.,        3000.
    337,        -100.,           0.,   2934.78271
    338,        -100.,           0.,   2869.56519
    339,        -100.,           0.,    2804.3479
    340,        -100.,           0.,   2739.13037
    341,        -100.,           0.,   2673.91309
    342,        -100.,           0.,   2608.69556
    343,        -100.,           0.,   2543.47827
    344,        -100.,           0.,   2478.26099
    345,        -100.,           0.,   2413.04346
    346,        -100.,           0.,   2347.82617
    347,        -100.,           0.,   2282.60864
    348,        -100.,           0.,   2217.39136
    349,        -100.,           0.,   2152.17383
    350,        -100.,           0.,   2086.95654
    351,        -100.,           0.,   2021.73914
    352,        -100.,           0.,   1956.52173
    353,        -100.,           0.,   1891.30432
    354,        -100.,           0.,   1826.08691
    355,        -100.,           0.,   1760.86951
    356,        -100.,           0.,   1695.65222
    357,        -100.,           0.,   1630.43481
    358,        -100.,           0.,   1565.21741
    359,        -100.,           0.,        1500.
    360,        -100.,           0.,   1434.78259
    361,        -100.,           0.,   1369.56519
    362,        -100.,           0.,   1304.34778
    363,        -100.,           0.,   1239.13049
    364,        -100.,           0.,   1173.91309
    365,        -100.,           0.,   1108.69568
    366,        -100.,           0.,   1043.47827
    367,        -100.,           0.,   978.260864
    368,        -100.,           0.,   913.043457
    369,        -100.,           0.,   847.826111
    370,        -100.,           0.,   782.608704
    371,        -100.,           0.,   717.391296
    372,        -100.,           0.,   652.173889
    373,        -100.,           0.,   586.956543
    374,        -100.,           0.,   521.739136
    375,        -100.,           0.,   456.521729
    376,        -100.,           0.,   391.304352
    377,        -100.,           0.,   326.086945
    378,        -100.,           0.,   260.869568
    379,        -100.,           0.,   195.652176
    380,        -100.,           0.,   130.434784
    381,        -100.,           0.,    65.217392
    382,         -50.,           0.,           0.
    383,          50.,           0.,        6000.
    384,          50.,           0.,           0.
    385,         100.,           0.,    65.217392
    386,         100.,           0.,   130.434784
    387,         100.,           0.,   195.652176
    388,         100.,           0.,   260.869568
    389,         100.,           0.,   326.086945
    390,         100.,           0.,   391.304352
    391,         100.,           0.,   456.521729
    392,         100.,           0.,   521.739136
    393,         100.,           0.,   586.956543
    394,         100.,           0.,   652.173889
    395,         100.,           0.,   717.391296
    396,         100.,           0.,   782.608704
    397,         100.,           0.,   847.826111
    398,         100.,           0.,   913.043457
    399,         100.,           0.,   978.260864
    400,         100.,           0.,   1043.47827
    401,         100.,           0.,   1108.69568
    402,         100.,           0.,   1173.91309
    403,         100.,           0.,   1239.13049
    404,         100.,           0.,   1304.34778
    405,         100.,           0.,   1369.56519
    406,         100.,           0.,   1434.78259
    407,         100.,           0.,        1500.
    408,         100.,           0.,   1565.21741
    409,         100.,           0.,   1630.43481
    410,         100.,           0.,   1695.65222
    411,         100.,           0.,   1760.86951
    412,         100.,           0.,   1826.08691
    413,         100.,           0.,   1891.30432
    414,         100.,           0.,   1956.52173
    415,         100.,           0.,   2021.73914
    416,         100.,           0.,   2086.95654
    417,         100.,           0.,   2152.17383
    418,         100.,           0.,   2217.39136
    419,         100.,           0.,   2282.60864
    420,         100.,           0.,   2347.82617
    421,         100.,           0.,   2413.04346
    422,         100.,           0.,   2478.26099
    423,         100.,           0.,   2543.47827
    424,         100.,           0.,   2608.69556
    425,         100.,           0.,   2673.91309
    426,         100.,           0.,   2739.13037
    427,         100.,           0.,    2804.3479
    428,         100.,           0.,   2869.56519
    429,         100.,           0.,   2934.78271
    430,         100.,           0.,        3000.
    431,         100.,           0.,   3065.21729
    432,         100.,           0.,   3130.43481
    433,         100.,           0.,    3195.6521
    434,         100.,           0.,   3260.86963
    435,         100.,           0.,   3326.08691
    436,         100.,           0.,   3391.30444
    437,         100.,           0.,   3456.52173
    438,         100.,           0.,   3521.73901
    439,         100.,           0.,   3586.95654
    440,         100.,           0.,   3652.17383
    441,         100.,           0.,   3717.39136
    442,         100.,           0.,   3782.60864
    443,         100.,           0.,   3847.82617
    444,         100.,           0.,   3913.04346
    445,         100.,           0.,   3978.26099
    446,         100.,           0.,   4043.47827
    447,         100.,           0.,    4108.6958
    448,         100.,           0.,   4173.91309
    449,         100.,           0.,   4239.13037
    450,         100.,           0.,   4304.34766
    451,         100.,           0.,   4369.56543
    452,         100.,           0.,   4434.78271
    453,         100.,           0.,        4500.
    454,         100.,           0.,   4565.21729
    455,         100.,           0.,   4630.43457
    456,         100.,           0.,   4695.65234
    457,         100.,           0.,   4760.86963
    458,         100.,           0.,   4826.08691
    459,         100.,           0.,    4891.3042
    460,         100.,           0.,   4956.52197
    461,         100.,           0.,   5021.73926
    462,         100.,           0.,   5086.95654
    463,         100.,           0.,   5152.17383
    464,         100.,           0.,   5217.39111
    465,         100.,           0.,   5282.60889
    466,         100.,           0.,   5347.82617
    467,         100.,           0.,   5413.04346
    468,         100.,           0.,   5478.26074
    469,         100.,           0.,   5543.47803
    470,         100.,           0.,    5608.6958
    471,         100.,           0.,   5673.91309
    472,         100.,           0.,   5739.13037
    473,         100.,           0.,   5804.34766
    474,         100.,           0.,   5869.56543
    475,         100.,           0.,   5934.78271
    476,          90.,         209.,    65.217392
    477,          90.,         209.,   130.434784
    478,          90.,         209.,   195.652176
    479,          90.,         209.,   260.869568
    480,          90.,         209.,   326.086945
    481,          90.,         209.,   391.304352
    482,          90.,         209.,   456.521729
    483,          90.,         209.,   521.739136
    484,          90.,         209.,   586.956543
    485,          90.,         209.,   652.173889
    486,          90.,         209.,   717.391296
    487,          90.,         209.,   782.608704
    488,          90.,         209.,   847.826111
    489,          90.,         209.,   913.043457
    490,          90.,         209.,   978.260864
    491,          90.,         209.,   1043.47827
    492,          90.,         209.,   1108.69568
    493,          90.,         209.,   1173.91309
    494,          90.,         209.,   1239.13049
    495,          90.,         209.,   1304.34778
    496,          90.,         209.,   1369.56519
    497,          90.,         209.,   1434.78259
    498,          90.,         209.,        1500.
    499,          90.,         209.,   1565.21741
    500,          90.,         209.,   1630.43481
    501,          90.,         209.,   1695.65222
    502,          90.,         209.,   1760.86951
    503,          90.,         209.,   1826.08691
    504,          90.,         209.,   1891.30432
    505,          90.,         209.,   1956.52173
    506,          90.,         209.,   2021.73914
    507,          90.,         209.,   2086.95654
    508,          90.,         209.,   2152.17383
    509,          90.,         209.,   2217.39136
    510,          90.,         209.,   2282.60864
    511,          90.,         209.,   2347.82617
    512,          90.,         209.,   2413.04346
    513,          90.,         209.,   2478.26099
    514,          90.,         209.,   2543.47827
    515,          90.,         209.,   2608.69556
    516,          90.,         209.,   2673.91309
    517,          90.,         209.,   2739.13037
    518,          90.,         209.,    2804.3479
    519,          90.,         209.,   2869.56519
    520,          90.,         209.,   2934.78271
    521,          90.,         209.,        3000.
    522,          90.,         209.,   3065.21729
    523,          90.,         209.,   3130.43481
    524,          90.,         209.,    3195.6521
    525,          90.,         209.,   3260.86963
    526,          90.,         209.,   3326.08691
    527,          90.,         209.,   3391.30444
    528,          90.,         209.,   3456.52173
    529,          90.,         209.,   3521.73901
    530,          90.,         209.,   3586.95654
    531,          90.,         209.,   3652.17383
    532,          90.,         209.,   3717.39136
    533,          90.,         209.,   3782.60864
    534,          90.,         209.,   3847.82617
    535,          90.,         209.,   3913.04346
    536,          90.,         209.,   3978.26099
    537,          90.,         209.,   4043.47827
    538,          90.,         209.,    4108.6958
    539,          90.,         209.,   4173.91309
    540,          90.,         209.,   4239.13037
    541,          90.,         209.,   4304.34766
    542,          90.,         209.,   4369.56543
    543,          90.,         209.,   4434.78271
    544,          90.,         209.,        4500.
    545,          90.,         209.,   4565.21729
    546,          90.,         209.,   4630.43457
    547,          90.,         209.,   4695.65234
    548,          90.,         209.,   4760.86963
    549,          90.,         209.,   4826.08691
    550,          90.,         209.,    4891.3042
    551,          90.,         209.,   4956.52197
    552,          90.,         209.,   5021.73926
    553,          90.,         209.,   5086.95654
    554,          90.,         209.,   5152.17383
    555,          90.,         209.,   5217.39111
    556,          90.,         209.,   5282.60889
    557,          90.,         209.,   5347.82617
    558,          90.,         209.,   5413.04346
    559,          90.,         209.,   5478.26074
    560,          90.,         209.,   5543.47803
    561,          90.,         209.,    5608.6958
    562,          90.,         209.,   5673.91309
    563,          90.,         209.,   5739.13037
    564,          90.,         209.,   5804.34766
    565,          90.,         209.,   5869.56543
    566,          90.,         209.,   5934.78271
    567,           0.,   139.333328,   5934.78271
    568,           0.,   69.6666641,   5934.78271
    569,           0.,   139.333328,   5869.56543
    570,           0.,   69.6666641,   5869.56543
    571,           0.,   139.333328,   5804.34766
    572,           0.,   69.6666641,   5804.34766
    573,           0.,   139.333328,   5739.13037
    574,           0.,   69.6666641,   5739.13037
    575,           0.,   139.333328,   5673.91309
    576,           0.,   69.6666641,   5673.91309
    577,           0.,   139.333328,    5608.6958
    578,           0.,   69.6666641,    5608.6958
    579,           0.,   139.333328,   5543.47803
    580,           0.,   69.6666641,   5543.47803
    581,           0.,   139.333328,   5478.26074
    582,           0.,   69.6666641,   5478.26074
    583,           0.,   139.333328,   5413.04346
    584,           0.,   69.6666641,   5413.04346
    585,           0.,   139.333328,   5347.82617
    586,           0.,   69.6666641,   5347.82617
    587,           0.,   139.333328,   5282.60889
    588,           0.,   69.6666641,   5282.60889
    589,           0.,   139.333328,   5217.39111
    590,           0.,   69.6666641,   5217.39111
    591,           0.,   139.333328,   5152.17383
    592,           0.,   69.6666641,   5152.17383
    593,           0.,   139.333328,   5086.95654
    594,           0.,   69.6666641,   5086.95654
    595,           0.,   139.333328,   5021.73926
    596,           0.,   69.6666641,   5021.73926
    597,           0.,   139.333328,   4956.52197
    598,           0.,   69.6666641,   4956.52197
    599,           0.,   139.333328,    4891.3042
    600,           0.,   69.6666641,    4891.3042
    601,           0.,   139.333328,   4826.08691
    602,           0.,   69.6666641,   4826.08691
    603,           0.,   139.333328,   4760.86963
    604,           0.,   69.6666641,   4760.86963
    605,           0.,   139.333328,   4695.65234
    606,           0.,   69.6666641,   4695.65234
    607,           0.,   139.333328,   4630.43457
    608,           0.,   69.6666641,   4630.43457
    609,           0.,   139.333328,   4565.21729
    610,           0.,   69.6666641,   4565.21729
    611,           0.,   139.333328,        4500.
    612,           0.,   69.6666641,        4500.
    613,           0.,   139.333328,   4434.78271
    614,           0.,   69.6666641,   4434.78271
    615,           0.,   139.333328,   4369.56543
    616,           0.,   69.6666641,   4369.56543
    617,           0.,   139.333328,   4304.34766
    618,           0.,   69.6666641,   4304.34766
    619,           0.,   139.333328,   4239.13037
    620,           0.,   69.6666641,   4239.13037
    621,           0.,   139.333328,   4173.91309
    622,           0.,   69.6666641,   4173.91309
    623,           0.,   139.333328,    4108.6958
    624,           0.,   69.6666641,    4108.6958
    625,           0.,   139.333328,   4043.47827
    626,           0.,   69.6666641,   4043.47827
    627,           0.,   139.333328,   3978.26099
    628,           0.,   69.6666641,   3978.26099
    629,           0.,   139.333328,   3913.04346
    630,           0.,   69.6666641,   3913.04346
    631,           0.,   139.333328,   3847.82617
    632,           0.,   69.6666641,   3847.82617
    633,           0.,   139.333328,   3782.60864
    634,           0.,   69.6666641,   3782.60864
    635,           0.,   139.333328,   3717.39136
    636,           0.,   69.6666641,   3717.39136
    637,           0.,   139.333328,   3652.17383
    638,           0.,   69.6666641,   3652.17383
    639,           0.,   139.333328,   3586.95654
    640,           0.,   69.6666641,   3586.95654
    641,           0.,   139.333328,   3521.73901
    642,           0.,   69.6666641,   3521.73901
    643,           0.,   139.333328,   3456.52173
    644,           0.,   69.6666641,   3456.52173
    645,           0.,   139.333328,   3391.30444
    646,           0.,   69.6666641,   3391.30444
    647,           0.,   139.333328,   3326.08691
    648,           0.,   69.6666641,   3326.08691
    649,           0.,   139.333328,   3260.86963
    650,           0.,   69.6666641,   3260.86963
    651,           0.,   139.333328,    3195.6521
    652,           0.,   69.6666641,    3195.6521
    653,           0.,   139.333328,   3130.43481
    654,           0.,   69.6666641,   3130.43481
    655,           0.,   139.333328,   3065.21729
    656,           0.,   69.6666641,   3065.21729
    657,           0.,   139.333328,        3000.
    658,           0.,   69.6666641,        3000.
    659,           0.,   139.333328,   2934.78271
    660,           0.,   69.6666641,   2934.78271
    661,           0.,   139.333328,   2869.56519
    662,           0.,   69.6666641,   2869.56519
    663,           0.,   139.333328,    2804.3479
    664,           0.,   69.6666641,    2804.3479
    665,           0.,   139.333328,   2739.13037
    666,           0.,   69.6666641,   2739.13037
    667,           0.,   139.333328,   2673.91309
    668,           0.,   69.6666641,   2673.91309
    669,           0.,   139.333328,   2608.69556
    670,           0.,   69.6666641,   2608.69556
    671,           0.,   139.333328,   2543.47827
    672,           0.,   69.6666641,   2543.47827
    673,           0.,   139.333328,   2478.26099
    674,           0.,   69.6666641,   2478.26099
    675,           0.,   139.333328,   2413.04346
    676,           0.,   69.6666641,   2413.04346
    677,           0.,   139.333328,   2347.82617
    678,           0.,   69.6666641,   2347.82617
    679,           0.,   139.333328,   2282.60864
    680,           0.,   69.6666641,   2282.60864
    681,           0.,   139.333328,   2217.39136
    682,           0.,   69.6666641,   2217.39136
    683,           0.,   139.333328,   2152.17383
    684,           0.,   69.6666641,   2152.17383
    685,           0.,   139.333328,   2086.95654
    686,           0.,   69.6666641,   2086.95654
    687,           0.,   139.333328,   2021.73914
    688,           0.,   69.6666641,   2021.73914
    689,           0.,   139.333328,   1956.52173
    690,           0.,   69.6666641,   1956.52173
    691,           0.,   139.333328,   1891.30432
    692,           0.,   69.6666641,   1891.30432
    693,           0.,   139.333328,   1826.08691
    694,           0.,   69.6666641,   1826.08691
    695,           0.,   139.333328,   1760.86951
    696,           0.,   69.6666641,   1760.86951
    697,           0.,   139.333328,   1695.65222
    698,           0.,   69.6666641,   1695.65222
    699,           0.,   139.333328,   1630.43481
    700,           0.,   69.6666641,   1630.43481
    701,           0.,   139.333328,   1565.21741
    702,           0.,   69.6666641,   1565.21741
    703,           0.,   139.333328,        1500.
    704,           0.,   69.6666641,        1500.
    705,           0.,   139.333328,   1434.78259
    706,           0.,   69.6666641,   1434.78259
    707,           0.,   139.333328,   1369.56519
    708,           0.,   69.6666641,   1369.56519
    709,           0.,   139.333328,   1304.34778
    710,           0.,   69.6666641,   1304.34778
    711,           0.,   139.333328,   1239.13049
    712,           0.,   69.6666641,   1239.13049
    713,           0.,   139.333328,   1173.91309
    714,           0.,   69.6666641,   1173.91309
    715,           0.,   139.333328,   1108.69568
    716,           0.,   69.6666641,   1108.69568
    717,           0.,   139.333328,   1043.47827
    718,           0.,   69.6666641,   1043.47827
    719,           0.,   139.333328,   978.260864
    720,           0.,   69.6666641,   978.260864
    721,           0.,   139.333328,   913.043457
    722,           0.,   69.6666641,   913.043457
    723,           0.,   139.333328,   847.826111
    724,           0.,   69.6666641,   847.826111
    725,           0.,   139.333328,   782.608704
    726,           0.,   69.6666641,   782.608704
    727,           0.,   139.333328,   717.391296
    728,           0.,   69.6666641,   717.391296
    729,           0.,   139.333328,   652.173889
    730,           0.,   69.6666641,   652.173889
    731,           0.,   139.333328,   586.956543
    732,           0.,   69.6666641,   586.956543
    733,           0.,   139.333328,   521.739136
    734,           0.,   69.6666641,   521.739136
    735,           0.,   139.333328,   456.521729
    736,           0.,   69.6666641,   456.521729
    737,           0.,   139.333328,   391.304352
    738,           0.,   69.6666641,   391.304352
    739,           0.,   139.333328,   326.086945
    740,           0.,   69.6666641,   326.086945
    741,           0.,   139.333328,   260.869568
    742,           0.,   69.6666641,   260.869568
    743,           0.,   139.333328,   195.652176
    744,           0.,   69.6666641,   195.652176
    745,           0.,   139.333328,   130.434784
    746,           0.,   69.6666641,   130.434784
    747,           0.,   139.333328,    65.217392
    748,           0.,   69.6666641,    65.217392
    749,         -50.,           0.,   5934.78271
    750,         -50.,           0.,   5869.56543
    751,         -50.,           0.,   5804.34766
    752,         -50.,           0.,   5739.13037
    753,         -50.,           0.,   5673.91309
    754,         -50.,           0.,    5608.6958
    755,         -50.,           0.,   5543.47803
    756,         -50.,           0.,   5478.26074
    757,         -50.,           0.,   5413.04346
    758,         -50.,           0.,   5347.82617
    759,         -50.,           0.,   5282.60889
    760,         -50.,           0.,   5217.39111
    761,         -50.,           0.,   5152.17383
    762,         -50.,           0.,   5086.95654
    763,         -50.,           0.,   5021.73926
    764,         -50.,           0.,   4956.52197
    765,         -50.,           0.,    4891.3042
    766,         -50.,           0.,   4826.08691
    767,         -50.,           0.,   4760.86963
    768,         -50.,           0.,   4695.65234
    769,         -50.,           0.,   4630.43457
    770,         -50.,           0.,   4565.21729
    771,         -50.,           0.,        4500.
    772,         -50.,           0.,   4434.78271
    773,         -50.,           0.,   4369.56543
    774,         -50.,           0.,   4304.34766
    775,         -50.,           0.,   4239.13037
    776,         -50.,           0.,   4173.91309
    777,         -50.,           0.,    4108.6958
    778,         -50.,           0.,   4043.47827
    779,         -50.,           0.,   3978.26099
    780,         -50.,           0.,   3913.04346
    781,         -50.,           0.,   3847.82617
    782,         -50.,           0.,   3782.60864
    783,         -50.,           0.,   3717.39136
    784,         -50.,           0.,   3652.17383
    785,         -50.,           0.,   3586.95654
    786,         -50.,           0.,   3521.73901
    787,         -50.,           0.,   3456.52173
    788,         -50.,           0.,   3391.30444
    789,         -50.,           0.,   3326.08691
    790,         -50.,           0.,   3260.86963
    791,         -50.,           0.,    3195.6521
    792,         -50.,           0.,   3130.43481
    793,         -50.,           0.,   3065.21729
    794,         -50.,           0.,        3000.
    795,         -50.,           0.,   2934.78271
    796,         -50.,           0.,   2869.56519
    797,         -50.,           0.,    2804.3479
    798,         -50.,           0.,   2739.13037
    799,         -50.,           0.,   2673.91309
    800,         -50.,           0.,   2608.69556
    801,         -50.,           0.,   2543.47827
    802,         -50.,           0.,   2478.26099
    803,         -50.,           0.,   2413.04346
    804,         -50.,           0.,   2347.82617
    805,         -50.,           0.,   2282.60864
    806,         -50.,           0.,   2217.39136
    807,         -50.,           0.,   2152.17383
    808,         -50.,           0.,   2086.95654
    809,         -50.,           0.,   2021.73914
    810,         -50.,           0.,   1956.52173
    811,         -50.,           0.,   1891.30432
    812,         -50.,           0.,   1826.08691
    813,         -50.,           0.,   1760.86951
    814,         -50.,           0.,   1695.65222
    815,         -50.,           0.,   1630.43481
    816,         -50.,           0.,   1565.21741
    817,         -50.,           0.,        1500.
    818,         -50.,           0.,   1434.78259
    819,         -50.,           0.,   1369.56519
    820,         -50.,           0.,   1304.34778
    821,         -50.,           0.,   1239.13049
    822,         -50.,           0.,   1173.91309
    823,         -50.,           0.,   1108.69568
    824,         -50.,           0.,   1043.47827
    825,         -50.,           0.,   978.260864
    826,         -50.,           0.,   913.043457
    827,         -50.,           0.,   847.826111
    828,         -50.,           0.,   782.608704
    829,         -50.,           0.,   717.391296
    830,         -50.,           0.,   652.173889
    831,         -50.,           0.,   586.956543
    832,         -50.,           0.,   521.739136
    833,         -50.,           0.,   456.521729
    834,         -50.,           0.,   391.304352
    835,         -50.,           0.,   326.086945
    836,         -50.,           0.,   260.869568
    837,         -50.,           0.,   195.652176
    838,         -50.,           0.,   130.434784
    839,         -50.,           0.,    65.217392
    840,          50.,           0.,   5934.78271
    841,          50.,           0.,   5869.56543
    842,          50.,           0.,   5804.34766
    843,          50.,           0.,   5739.13037
    844,          50.,           0.,   5673.91309
    845,          50.,           0.,    5608.6958
    846,          50.,           0.,   5543.47803
    847,          50.,           0.,   5478.26074
    848,          50.,           0.,   5413.04346
    849,          50.,           0.,   5347.82617
    850,          50.,           0.,   5282.60889
    851,          50.,           0.,   5217.39111
    852,          50.,           0.,   5152.17383
    853,          50.,           0.,   5086.95654
    854,          50.,           0.,   5021.73926
    855,          50.,           0.,   4956.52197
    856,          50.,           0.,    4891.3042
    857,          50.,           0.,   4826.08691
    858,          50.,           0.,   4760.86963
    859,          50.,           0.,   4695.65234
    860,          50.,           0.,   4630.43457
    861,          50.,           0.,   4565.21729
    862,          50.,           0.,        4500.
    863,          50.,           0.,   4434.78271
    864,          50.,           0.,   4369.56543
    865,          50.,           0.,   4304.34766
    866,          50.,           0.,   4239.13037
    867,          50.,           0.,   4173.91309
    868,          50.,           0.,    4108.6958
    869,          50.,           0.,   4043.47827
    870,          50.,           0.,   3978.26099
    871,          50.,           0.,   3913.04346
    872,          50.,           0.,   3847.82617
    873,          50.,           0.,   3782.60864
    874,          50.,           0.,   3717.39136
    875,          50.,           0.,   3652.17383
    876,          50.,           0.,   3586.95654
    877,          50.,           0.,   3521.73901
    878,          50.,           0.,   3456.52173
    879,          50.,           0.,   3391.30444
    880,          50.,           0.,   3326.08691
    881,          50.,           0.,   3260.86963
    882,          50.,           0.,    3195.6521
    883,          50.,           0.,   3130.43481
    884,          50.,           0.,   3065.21729
    885,          50.,           0.,        3000.
    886,          50.,           0.,   2934.78271
    887,          50.,           0.,   2869.56519
    888,          50.,           0.,    2804.3479
    889,          50.,           0.,   2739.13037
    890,          50.,           0.,   2673.91309
    891,          50.,           0.,   2608.69556
    892,          50.,           0.,   2543.47827
    893,          50.,           0.,   2478.26099
    894,          50.,           0.,   2413.04346
    895,          50.,           0.,   2347.82617
    896,          50.,           0.,   2282.60864
    897,          50.,           0.,   2217.39136
    898,          50.,           0.,   2152.17383
    899,          50.,           0.,   2086.95654
    900,          50.,           0.,   2021.73914
    901,          50.,           0.,   1956.52173
    902,          50.,           0.,   1891.30432
    903,          50.,           0.,   1826.08691
    904,          50.,           0.,   1760.86951
    905,          50.,           0.,   1695.65222
    906,          50.,           0.,   1630.43481
    907,          50.,           0.,   1565.21741
    908,          50.,           0.,        1500.
    909,          50.,           0.,   1434.78259
    910,          50.,           0.,   1369.56519
    911,          50.,           0.,   1304.34778
    912,          50.,           0.,   1239.13049
    913,          50.,           0.,   1173.91309
    914,          50.,           0.,   1108.69568
    915,          50.,           0.,   1043.47827
    916,          50.,           0.,   978.260864
    917,          50.,           0.,   913.043457
    918,          50.,           0.,   847.826111
    919,          50.,           0.,   782.608704
    920,          50.,           0.,   717.391296
    921,          50.,           0.,   652.173889
    922,          50.,           0.,   586.956543
    923,          50.,           0.,   521.739136
    924,          50.,           0.,   456.521729
    925,          50.,           0.,   391.304352
    926,          50.,           0.,   326.086945
    927,          50.,           0.,   260.869568
    928,          50.,           0.,   195.652176
    929,          50.,           0.,   130.434784
    930,          50.,           0.,    65.217392
*Element, type=S4R
 1,   1,   2,  14, 194
 2, 194,  14,  15, 193
 3, 193,  15,  16, 192
 4, 192,  16,  17, 191
 5, 191,  17,  18, 190
 6, 190,  18,  19, 189
 7, 189,  19,  20, 188
 8, 188,  20,  21, 187
 9, 187,  21,  22, 186
10, 186,  22,  23, 185
11, 185,  23,  24, 184
12, 184,  24,  25, 183
13, 183,  25,  26, 182
14, 182,  26,  27, 181
15, 181,  27,  28, 180
16, 180,  28,  29, 179
17, 179,  29,  30, 178
18, 178,  30,  31, 177
19, 177,  31,  32, 176
20, 176,  32,  33, 175
21, 175,  33,  34, 174
22, 174,  34,  35, 173
23, 173,  35,  36, 172
24, 172,  36,  37, 171
25, 171,  37,  38, 170
26, 170,  38,  39, 169
27, 169,  39,  40, 168
28, 168,  40,  41, 167
29, 167,  41,  42, 166
30, 166,  42,  43, 165
31, 165,  43,  44, 164
32, 164,  44,  45, 163
33, 163,  45,  46, 162
34, 162,  46,  47, 161
35, 161,  47,  48, 160
36, 160,  48,  49, 159
37, 159,  49,  50, 158
38, 158,  50,  51, 157
39, 157,  51,  52, 156
40, 156,  52,  53, 155
41, 155,  53,  54, 154
42, 154,  54,  55, 153
43, 153,  55,  56, 152
44, 152,  56,  57, 151
45, 151,  57,  58, 150
46, 150,  58,   3, 149
47, 149,   3,  59, 148
48, 148,  59,  60, 147
49, 147,  60,  61, 146
50, 146,  61,  62, 145
51, 145,  62,  63, 144
52, 144,  63,  64, 143
53, 143,  64,  65, 142
54, 142,  65,  66, 141
55, 141,  66,  67, 140
56, 140,  67,  68, 139
57, 139,  68,  69, 138
58, 138,  69,  70, 137
59, 137,  70,  71, 136
60, 136,  71,  72, 135
61, 135,  72,  73, 134
62, 134,  73,  74, 133
63, 133,  74,  75, 132
64, 132,  75,  76, 131
65, 131,  76,  77, 130
66, 130,  77,  78, 129
67, 129,  78,  79, 128
68, 128,  79,  80, 127
69, 127,  80,  81, 126
70, 126,  81,  82, 125
71, 125,  82,  83, 124
72, 124,  83,  84, 123
73, 123,  84,  85, 122
74, 122,  85,  86, 121
75, 121,  86,  87, 120
76, 120,  87,  88, 119
77, 119,  88,  89, 118
78, 118,  89,  90, 117
79, 117,  90,  91, 116
80, 116,  91,  92, 115
81, 115,  92,  93, 114
82, 114,  93,  94, 113
83, 113,  94,  95, 112
84, 112,  95,  96, 111
85, 111,  96,  97, 110
86, 110,  97,  98, 109
87, 109,  98,  99, 108
88, 108,  99, 100, 107
89, 107, 100, 101, 106
90, 106, 101, 102, 105
91, 105, 102, 103, 104
92, 104, 103,   4,   5
 93,   2, 195, 567,  14
 94, 195, 196, 568, 567
 95, 196,   6, 197, 568
 96,  14, 567, 569,  15
 97, 567, 568, 570, 569
 98, 568, 197, 198, 570
 99,  15, 569, 571,  16
100, 569, 570, 572, 571
101, 570, 198, 199, 572
102,  16, 571, 573,  17
103, 571, 572, 574, 573
104, 572, 199, 200, 574
105,  17, 573, 575,  18
106, 573, 574, 576, 575
107, 574, 200, 201, 576
108,  18, 575, 577,  19
109, 575, 576, 578, 577
110, 576, 201, 202, 578
111,  19, 577, 579,  20
112, 577, 578, 580, 579
113, 578, 202, 203, 580
114,  20, 579, 581,  21
115, 579, 580, 582, 581
116, 580, 203, 204, 582
117,  21, 581, 583,  22
118, 581, 582, 584, 583
119, 582, 204, 205, 584
120,  22, 583, 585,  23
121, 583, 584, 586, 585
122, 584, 205, 206, 586
123,  23, 585, 587,  24
124, 585, 586, 588, 587
125, 586, 206, 207, 588
126,  24, 587, 589,  25
127, 587, 588, 590, 589
128, 588, 207, 208, 590
129,  25, 589, 591,  26
130, 589, 590, 592, 591
131, 590, 208, 209, 592
132,  26, 591, 593,  27
133, 591, 592, 594, 593
134, 592, 209, 210, 594
135,  27, 593, 595,  28
136, 593, 594, 596, 595
137, 594, 210, 211, 596
138,  28, 595, 597,  29
139, 595, 596, 598, 597
140, 596, 211, 212, 598
141,  29, 597, 599,  30
142, 597, 598, 600, 599
143, 598, 212, 213, 600
144,  30, 599, 601,  31
145, 599, 600, 602, 601
146, 600, 213, 214, 602
147,  31, 601, 603,  32
148, 601, 602, 604, 603
149, 602, 214, 215, 604
150,  32, 603, 605,  33
151, 603, 604, 606, 605
152, 604, 215, 216, 606
153,  33, 605, 607,  34
154, 605, 606, 608, 607
155, 606, 216, 217, 608
156,  34, 607, 609,  35
157, 607, 608, 610, 609
158, 608, 217, 218, 610
159,  35, 609, 611,  36
160, 609, 610, 612, 611
161, 610, 218, 219, 612
162,  36, 611, 613,  37
163, 611, 612, 614, 613
164, 612, 219, 220, 614
165,  37, 613, 615,  38
166, 613, 614, 616, 615
167, 614, 220, 221, 616
168,  38, 615, 617,  39
169, 615, 616, 618, 617
170, 616, 221, 222, 618
171,  39, 617, 619,  40
172, 617, 618, 620, 619
173, 618, 222, 223, 620
174,  40, 619, 621,  41
175, 619, 620, 622, 621
176, 620, 223, 224, 622
177,  41, 621, 623,  42
178, 621, 622, 624, 623
179, 622, 224, 225, 624
180,  42, 623, 625,  43
181, 623, 624, 626, 625
182, 624, 225, 226, 626
183,  43, 625, 627,  44
184, 625, 626, 628, 627
185, 626, 226, 227, 628
186,  44, 627, 629,  45
187, 627, 628, 630, 629
188, 628, 227, 228, 630
189,  45, 629, 631,  46
190, 629, 630, 632, 631
191, 630, 228, 229, 632
192,  46, 631, 633,  47
193, 631, 632, 634, 633
194, 632, 229, 230, 634
195,  47, 633, 635,  48
196, 633, 634, 636, 635
197, 634, 230, 231, 636
198,  48, 635, 637,  49
199, 635, 636, 638, 637
200, 636, 231, 232, 638
201,  49, 637, 639,  50
202, 637, 638, 640, 639
203, 638, 232, 233, 640
204,  50, 639, 641,  51
205, 639, 640, 642, 641
206, 640, 233, 234, 642
207,  51, 641, 643,  52
208, 641, 642, 644, 643
209, 642, 234, 235, 644
210,  52, 643, 645,  53
211, 643, 644, 646, 645
212, 644, 235, 236, 646
213,  53, 645, 647,  54
214, 645, 646, 648, 647
215, 646, 236, 237, 648
216,  54, 647, 649,  55
217, 647, 648, 650, 649
218, 648, 237, 238, 650
219,  55, 649, 651,  56
220, 649, 650, 652, 651
221, 650, 238, 239, 652
222,  56, 651, 653,  57
223, 651, 652, 654, 653
224, 652, 239, 240, 654
225,  57, 653, 655,  58
226, 653, 654, 656, 655
227, 654, 240, 241, 656
228,  58, 655, 657,   3
229, 655, 656, 658, 657
230, 656, 241, 242, 658
231,   3, 657, 659,  59
232, 657, 658, 660, 659
233, 658, 242, 243, 660
234,  59, 659, 661,  60
235, 659, 660, 662, 661
236, 660, 243, 244, 662
237,  60, 661, 663,  61
238, 661, 662, 664, 663
239, 662, 244, 245, 664
240,  61, 663, 665,  62
241, 663, 664, 666, 665
242, 664, 245, 246, 666
243,  62, 665, 667,  63
244, 665, 666, 668, 667
245, 666, 246, 247, 668
246,  63, 667, 669,  64
247, 667, 668, 670, 669
248, 668, 247, 248, 670
249,  64, 669, 671,  65
250, 669, 670, 672, 671
251, 670, 248, 249, 672
252,  65, 671, 673,  66
253, 671, 672, 674, 673
254, 672, 249, 250, 674
255,  66, 673, 675,  67
256, 673, 674, 676, 675
257, 674, 250, 251, 676
258,  67, 675, 677,  68
259, 675, 676, 678, 677
260, 676, 251, 252, 678
261,  68, 677, 679,  69
262, 677, 678, 680, 679
263, 678, 252, 253, 680
264,  69, 679, 681,  70
265, 679, 680, 682, 681
266, 680, 253, 254, 682
267,  70, 681, 683,  71
268, 681, 682, 684, 683
269, 682, 254, 255, 684
270,  71, 683, 685,  72
271, 683, 684, 686, 685
272, 684, 255, 256, 686
273,  72, 685, 687,  73
274, 685, 686, 688, 687
275, 686, 256, 257, 688
276,  73, 687, 689,  74
277, 687, 688, 690, 689
278, 688, 257, 258, 690
279,  74, 689, 691,  75
280, 689, 690, 692, 691
281, 690, 258, 259, 692
282,  75, 691, 693,  76
283, 691, 692, 694, 693
284, 692, 259, 260, 694
285,  76, 693, 695,  77
286, 693, 694, 696, 695
287, 694, 260, 261, 696
288,  77, 695, 697,  78
289, 695, 696, 698, 697
290, 696, 261, 262, 698
291,  78, 697, 699,  79
292, 697, 698, 700, 699
293, 698, 262, 263, 700
294,  79, 699, 701,  80
295, 699, 700, 702, 701
296, 700, 263, 264, 702
297,  80, 701, 703,  81
298, 701, 702, 704, 703
299, 702, 264, 265, 704
300,  81, 703, 705,  82
301, 703, 704, 706, 705
302, 704, 265, 266, 706
303,  82, 705, 707,  83
304, 705, 706, 708, 707
305, 706, 266, 267, 708
306,  83, 707, 709,  84
307, 707, 708, 710, 709
308, 708, 267, 268, 710
309,  84, 709, 711,  85
310, 709, 710, 712, 711
311, 710, 268, 269, 712
312,  85, 711, 713,  86
313, 711, 712, 714, 713
314, 712, 269, 270, 714
315,  86, 713, 715,  87
316, 713, 714, 716, 715
317, 714, 270, 271, 716
318,  87, 715, 717,  88
319, 715, 716, 718, 717
320, 716, 271, 272, 718
321,  88, 717, 719,  89
322, 717, 718, 720, 719
323, 718, 272, 273, 720
324,  89, 719, 721,  90
325, 719, 720, 722, 721
326, 720, 273, 274, 722
327,  90, 721, 723,  91
328, 721, 722, 724, 723
329, 722, 274, 275, 724
330,  91, 723, 725,  92
331, 723, 724, 726, 725
332, 724, 275, 276, 726
333,  92, 725, 727,  93
334, 725, 726, 728, 727
335, 726, 276, 277, 728
336,  93, 727, 729,  94
337, 727, 728, 730, 729
338, 728, 277, 278, 730
339,  94, 729, 731,  95
340, 729, 730, 732, 731
341, 730, 278, 279, 732
342,  95, 731, 733,  96
343, 731, 732, 734, 733
344, 732, 279, 280, 734
345,  96, 733, 735,  97
346, 733, 734, 736, 735
347, 734, 280, 281, 736
348,  97, 735, 737,  98
349, 735, 736, 738, 737
350, 736, 281, 282, 738
351,  98, 737, 739,  99
352, 737, 738, 740, 739
353, 738, 282, 283, 740
354,  99, 739, 741, 100
355, 739, 740, 742, 741
356, 740, 283, 284, 742
357, 100, 741, 743, 101
358, 741, 742, 744, 743
359, 742, 284, 285, 744
360, 101, 743, 745, 102
361, 743, 744, 746, 745
362, 744, 285, 286, 746
363, 102, 745, 747, 103
364, 745, 746, 748, 747
365, 746, 286, 287, 748
366, 103, 747, 289,   4
367, 747, 748, 288, 289
368, 748, 287,   7, 288
369,   6, 290, 749, 197
370, 290,   8, 291, 749
371, 197, 749, 750, 198
372, 749, 291, 292, 750
373, 198, 750, 751, 199
374, 750, 292, 293, 751
375, 199, 751, 752, 200
376, 751, 293, 294, 752
377, 200, 752, 753, 201
378, 752, 294, 295, 753
379, 201, 753, 754, 202
380, 753, 295, 296, 754
381, 202, 754, 755, 203
382, 754, 296, 297, 755
383, 203, 755, 756, 204
384, 755, 297, 298, 756
385, 204, 756, 757, 205
386, 756, 298, 299, 757
387, 205, 757, 758, 206
388, 757, 299, 300, 758
389, 206, 758, 759, 207
390, 758, 300, 301, 759
391, 207, 759, 760, 208
392, 759, 301, 302, 760
393, 208, 760, 761, 209
394, 760, 302, 303, 761
395, 209, 761, 762, 210
396, 761, 303, 304, 762
397, 210, 762, 763, 211
398, 762, 304, 305, 763
399, 211, 763, 764, 212
400, 763, 305, 306, 764
401, 212, 764, 765, 213
402, 764, 306, 307, 765
403, 213, 765, 766, 214
404, 765, 307, 308, 766
405, 214, 766, 767, 215
406, 766, 308, 309, 767
407, 215, 767, 768, 216
408, 767, 309, 310, 768
409, 216, 768, 769, 217
410, 768, 310, 311, 769
411, 217, 769, 770, 218
412, 769, 311, 312, 770
413, 218, 770, 771, 219
414, 770, 312, 313, 771
415, 219, 771, 772, 220
416, 771, 313, 314, 772
417, 220, 772, 773, 221
418, 772, 314, 315, 773
419, 221, 773, 774, 222
420, 773, 315, 316, 774
421, 222, 774, 775, 223
422, 774, 316, 317, 775
423, 223, 775, 776, 224
424, 775, 317, 318, 776
425, 224, 776, 777, 225
426, 776, 318, 319, 777
427, 225, 777, 778, 226
428, 777, 319, 320, 778
429, 226, 778, 779, 227
430, 778, 320, 321, 779
431, 227, 779, 780, 228
432, 779, 321, 322, 780
433, 228, 780, 781, 229
434, 780, 322, 323, 781
435, 229, 781, 782, 230
436, 781, 323, 324, 782
437, 230, 782, 783, 231
438, 782, 324, 325, 783
439, 231, 783, 784, 232
440, 783, 325, 326, 784
441, 232, 784, 785, 233
442, 784, 326, 327, 785
443, 233, 785, 786, 234
444, 785, 327, 328, 786
445, 234, 786, 787, 235
446, 786, 328, 329, 787
447, 235, 787, 788, 236
448, 787, 329, 330, 788
449, 236, 788, 789, 237
450, 788, 330, 331, 789
451, 237, 789, 790, 238
452, 789, 331, 332, 790
453, 238, 790, 791, 239
454, 790, 332, 333, 791
455, 239, 791, 792, 240
456, 791, 333, 334, 792
457, 240, 792, 793, 241
458, 792, 334, 335, 793
459, 241, 793, 794, 242
460, 793, 335, 336, 794
461, 242, 794, 795, 243
462, 794, 336, 337, 795
463, 243, 795, 796, 244
464, 795, 337, 338, 796
465, 244, 796, 797, 245
466, 796, 338, 339, 797
467, 245, 797, 798, 246
468, 797, 339, 340, 798
469, 246, 798, 799, 247
470, 798, 340, 341, 799
471, 247, 799, 800, 248
472, 799, 341, 342, 800
473, 248, 800, 801, 249
474, 800, 342, 343, 801
475, 249, 801, 802, 250
476, 801, 343, 344, 802
477, 250, 802, 803, 251
478, 802, 344, 345, 803
479, 251, 803, 804, 252
480, 803, 345, 346, 804
481, 252, 804, 805, 253
482, 804, 346, 347, 805
483, 253, 805, 806, 254
484, 805, 347, 348, 806
485, 254, 806, 807, 255
486, 806, 348, 349, 807
487, 255, 807, 808, 256
488, 807, 349, 350, 808
489, 256, 808, 809, 257
490, 808, 350, 351, 809
491, 257, 809, 810, 258
492, 809, 351, 352, 810
493, 258, 810, 811, 259
494, 810, 352, 353, 811
495, 259, 811, 812, 260
496, 811, 353, 354, 812
497, 260, 812, 813, 261
498, 812, 354, 355, 813
499, 261, 813, 814, 262
500, 813, 355, 356, 814
501, 262, 814, 815, 263
502, 814, 356, 357, 815
503, 263, 815, 816, 264
504, 815, 357, 358, 816
505, 264, 816, 817, 265
506, 816, 358, 359, 817
507, 265, 817, 818, 266
508, 817, 359, 360, 818
509, 266, 818, 819, 267
510, 818, 360, 361, 819
511, 267, 819, 820, 268
512, 819, 361, 362, 820
513, 268, 820, 821, 269
514, 820, 362, 363, 821
515, 269, 821, 822, 270
516, 821, 363, 364, 822
517, 270, 822, 823, 271
518, 822, 364, 365, 823
519, 271, 823, 824, 272
520, 823, 365, 366, 824
521, 272, 824, 825, 273
522, 824, 366, 367, 825
523, 273, 825, 826, 274
524, 825, 367, 368, 826
525, 274, 826, 827, 275
526, 826, 368, 369, 827
527, 275, 827, 828, 276
528, 827, 369, 370, 828
529, 276, 828, 829, 277
530, 828, 370, 371, 829
531, 277, 829, 830, 278
532, 829, 371, 372, 830
533, 278, 830, 831, 279
534, 830, 372, 373, 831
535, 279, 831, 832, 280
536, 831, 373, 374, 832
537, 280, 832, 833, 281
538, 832, 374, 375, 833
539, 281, 833, 834, 282
540, 833, 375, 376, 834
541, 282, 834, 835, 283
542, 834, 376, 377, 835
543, 283, 835, 836, 284
544, 835, 377, 378, 836
545, 284, 836, 837, 285
546, 836, 378, 379, 837
547, 285, 837, 838, 286
548, 837, 379, 380, 838
549, 286, 838, 839, 287
550, 838, 380, 381, 839
551, 287, 839, 382,   7
552, 839, 381,   9, 382
553,  10, 383, 840, 475
554, 383,   6, 197, 840
555, 475, 840, 841, 474
556, 840, 197, 198, 841
557, 474, 841, 842, 473
558, 841, 198, 199, 842
559, 473, 842, 843, 472
560, 842, 199, 200, 843
561, 472, 843, 844, 471
562, 843, 200, 201, 844
563, 471, 844, 845, 470
564, 844, 201, 202, 845
565, 470, 845, 846, 469
566, 845, 202, 203, 846
567, 469, 846, 847, 468
568, 846, 203, 204, 847
569, 468, 847, 848, 467
570, 847, 204, 205, 848
571, 467, 848, 849, 466
572, 848, 205, 206, 849
573, 466, 849, 850, 465
574, 849, 206, 207, 850
575, 465, 850, 851, 464
576, 850, 207, 208, 851
577, 464, 851, 852, 463
578, 851, 208, 209, 852
579, 463, 852, 853, 462
580, 852, 209, 210, 853
581, 462, 853, 854, 461
582, 853, 210, 211, 854
583, 461, 854, 855, 460
584, 854, 211, 212, 855
585, 460, 855, 856, 459
586, 855, 212, 213, 856
587, 459, 856, 857, 458
588, 856, 213, 214, 857
589, 458, 857, 858, 457
590, 857, 214, 215, 858
591, 457, 858, 859, 456
592, 858, 215, 216, 859
593, 456, 859, 860, 455
594, 859, 216, 217, 860
595, 455, 860, 861, 454
596, 860, 217, 218, 861
597, 454, 861, 862, 453
598, 861, 218, 219, 862
599, 453, 862, 863, 452
600, 862, 219, 220, 863
601, 452, 863, 864, 451
602, 863, 220, 221, 864
603, 451, 864, 865, 450
604, 864, 221, 222, 865
605, 450, 865, 866, 449
606, 865, 222, 223, 866
607, 449, 866, 867, 448
608, 866, 223, 224, 867
609, 448, 867, 868, 447
610, 867, 224, 225, 868
611, 447, 868, 869, 446
612, 868, 225, 226, 869
613, 446, 869, 870, 445
614, 869, 226, 227, 870
615, 445, 870, 871, 444
616, 870, 227, 228, 871
617, 444, 871, 872, 443
618, 871, 228, 229, 872
619, 443, 872, 873, 442
620, 872, 229, 230, 873
621, 442, 873, 874, 441
622, 873, 230, 231, 874
623, 441, 874, 875, 440
624, 874, 231, 232, 875
625, 440, 875, 876, 439
626, 875, 232, 233, 876
627, 439, 876, 877, 438
628, 876, 233, 234, 877
629, 438, 877, 878, 437
630, 877, 234, 235, 878
631, 437, 878, 879, 436
632, 878, 235, 236, 879
633, 436, 879, 880, 435
634, 879, 236, 237, 880
635, 435, 880, 881, 434
636, 880, 237, 238, 881
637, 434, 881, 882, 433
638, 881, 238, 239, 882
639, 433, 882, 883, 432
640, 882, 239, 240, 883
641, 432, 883, 884, 431
642, 883, 240, 241, 884
643, 431, 884, 885, 430
644, 884, 241, 242, 885
645, 430, 885, 886, 429
646, 885, 242, 243, 886
647, 429, 886, 887, 428
648, 886, 243, 244, 887
649, 428, 887, 888, 427
650, 887, 244, 245, 888
651, 427, 888, 889, 426
652, 888, 245, 246, 889
653, 426, 889, 890, 425
654, 889, 246, 247, 890
655, 425, 890, 891, 424
656, 890, 247, 248, 891
657, 424, 891, 892, 423
658, 891, 248, 249, 892
659, 423, 892, 893, 422
660, 892, 249, 250, 893
661, 422, 893, 894, 421
662, 893, 250, 251, 894
663, 421, 894, 895, 420
664, 894, 251, 252, 895
665, 420, 895, 896, 419
666, 895, 252, 253, 896
667, 419, 896, 897, 418
668, 896, 253, 254, 897
669, 418, 897, 898, 417
670, 897, 254, 255, 898
671, 417, 898, 899, 416
672, 898, 255, 256, 899
673, 416, 899, 900, 415
674, 899, 256, 257, 900
675, 415, 900, 901, 414
676, 900, 257, 258, 901
677, 414, 901, 902, 413
678, 901, 258, 259, 902
679, 413, 902, 903, 412
680, 902, 259, 260, 903
681, 412, 903, 904, 411
682, 903, 260, 261, 904
683, 411, 904, 905, 410
684, 904, 261, 262, 905
685, 410, 905, 906, 409
686, 905, 262, 263, 906
687, 409, 906, 907, 408
688, 906, 263, 264, 907
689, 408, 907, 908, 407
690, 907, 264, 265, 908
691, 407, 908, 909, 406
692, 908, 265, 266, 909
693, 406, 909, 910, 405
694, 909, 266, 267, 910
695, 405, 910, 911, 404
696, 910, 267, 268, 911
697, 404, 911, 912, 403
698, 911, 268, 269, 912
699, 403, 912, 913, 402
700, 912, 269, 270, 913
701, 402, 913, 914, 401
702, 913, 270, 271, 914
703, 401, 914, 915, 400
704, 914, 271, 272, 915
705, 400, 915, 916, 399
706, 915, 272, 273, 916
707, 399, 916, 917, 398
708, 916, 273, 274, 917
709, 398, 917, 918, 397
710, 917, 274, 275, 918
711, 397, 918, 919, 396
712, 918, 275, 276, 919
713, 396, 919, 920, 395
714, 919, 276, 277, 920
715, 395, 920, 921, 394
716, 920, 277, 278, 921
717, 394, 921, 922, 393
718, 921, 278, 279, 922
719, 393, 922, 923, 392
720, 922, 279, 280, 923
721, 392, 923, 924, 391
722, 923, 280, 281, 924
723, 391, 924, 925, 390
724, 924, 281, 282, 925
725, 390, 925, 926, 389
726, 925, 282, 283, 926
727, 389, 926, 927, 388
728, 926, 283, 284, 927
729, 388, 927, 928, 387
730, 927, 284, 285, 928
731, 387, 928, 929, 386
732, 928, 285, 286, 929
733, 386, 929, 930, 385
734, 929, 286, 287, 930
735, 385, 930, 384,  11
736, 930, 287,   7, 384
737,  12,   2,  14, 566
738, 566,  14,  15, 565
739, 565,  15,  16, 564
740, 564,  16,  17, 563
741, 563,  17,  18, 562
742, 562,  18,  19, 561
743, 561,  19,  20, 560
744, 560,  20,  21, 559
745, 559,  21,  22, 558
746, 558,  22,  23, 557
747, 557,  23,  24, 556
748, 556,  24,  25, 555
749, 555,  25,  26, 554
750, 554,  26,  27, 553
751, 553,  27,  28, 552
752, 552,  28,  29, 551
753, 551,  29,  30, 550
754, 550,  30,  31, 549
755, 549,  31,  32, 548
756, 548,  32,  33, 547
757, 547,  33,  34, 546
758, 546,  34,  35, 545
759, 545,  35,  36, 544
760, 544,  36,  37, 543
761, 543,  37,  38, 542
762, 542,  38,  39, 541
763, 541,  39,  40, 540
764, 540,  40,  41, 539
765, 539,  41,  42, 538
766, 538,  42,  43, 537
767, 537,  43,  44, 536
768, 536,  44,  45, 535
769, 535,  45,  46, 534
770, 534,  46,  47, 533
771, 533,  47,  48, 532
772, 532,  48,  49, 531
773, 531,  49,  50, 530
774, 530,  50,  51, 529
775, 529,  51,  52, 528
776, 528,  52,  53, 527
777, 527,  53,  54, 526
778, 526,  54,  55, 525
779, 525,  55,  56, 524
780, 524,  56,  57, 523
781, 523,  57,  58, 522
782, 522,  58,   3, 521
783, 521,   3,  59, 520
784, 520,  59,  60, 519
785, 519,  60,  61, 518
786, 518,  61,  62, 517
787, 517,  62,  63, 516
788, 516,  63,  64, 515
789, 515,  64,  65, 514
790, 514,  65,  66, 513
791, 513,  66,  67, 512
792, 512,  67,  68, 511
793, 511,  68,  69, 510
794, 510,  69,  70, 509
795, 509,  70,  71, 508
796, 508,  71,  72, 507
797, 507,  72,  73, 506
798, 506,  73,  74, 505
799, 505,  74,  75, 504
800, 504,  75,  76, 503
801, 503,  76,  77, 502
802, 502,  77,  78, 501
803, 501,  78,  79, 500
804, 500,  79,  80, 499
805, 499,  80,  81, 498
806, 498,  81,  82, 497
807, 497,  82,  83, 496
808, 496,  83,  84, 495
809, 495,  84,  85, 494
810, 494,  85,  86, 493
811, 493,  86,  87, 492
812, 492,  87,  88, 491
813, 491,  88,  89, 490
814, 490,  89,  90, 489
815, 489,  90,  91, 488
816, 488,  91,  92, 487
817, 487,  92,  93, 486
818, 486,  93,  94, 485
819, 485,  94,  95, 484
820, 484,  95,  96, 483
821, 483,  96,  97, 482
822, 482,  97,  98, 481
823, 481,  98,  99, 480
824, 480,  99, 100, 479
825, 479, 100, 101, 478
826, 478, 101, 102, 477
827, 477, 102, 103, 476
828, 476, 103,   4,  13
*Nset, nset=_PickedSet2, internal
   1,   2,   3,   4,   5,  12,  13,  14,  15,  16,  17,  18,  19,  20,  21,  22
  23,  24,  25,  26,  27,  28,  29,  30,  31,  32,  33,  34,  35,  36,  37,  38
  39,  40,  41,  42,  43,  44,  45,  46,  47,  48,  49,  50,  51,  52,  53,  54
  55,  56,  57,  58,  59,  60,  61,  62,  63,  64,  65,  66,  67,  68,  69,  70
  71,  72,  73,  74,  75,  76,  77,  78,  79,  80,  81,  82,  83,  84,  85,  86
  87,  88,  89,  90,  91,  92,  93,  94,  95,  96,  97,  98,  99, 100, 101, 102
 103, 104, 105, 106, 107, 108, 109, 110, 111, 112, 113, 114, 115, 116, 117, 118
 119, 120, 121, 122, 123, 124, 125, 126, 127, 128, 129, 130, 131, 132, 133, 134
 135, 136, 137, 138, 139, 140, 141, 142, 143, 144, 145, 146, 147, 148, 149, 150
 151, 152, 153, 154, 155, 156, 157, 158, 159, 160, 161, 162, 163, 164, 165, 166
 167, 168, 169, 170, 171, 172, 173, 174, 175, 176, 177, 178, 179, 180, 181, 182
 183, 184, 185, 186, 187, 188, 189, 190, 191, 192, 193, 194, 476, 477, 478, 479
 480, 481, 482, 483, 484, 485, 486, 487, 488, 489, 490, 491, 492, 493, 494, 495
 496, 497, 498, 499, 500, 501, 502, 503, 504, 505, 506, 507, 508, 509, 510, 511
 512, 513, 514, 515, 516, 517, 518, 519, 520, 521, 522, 523, 524, 525, 526, 527
 528, 529, 530, 531, 532, 533, 534, 535, 536, 537, 538, 539, 540, 541, 542, 543
 544, 545, 546, 547, 548, 549, 550, 551, 552, 553, 554, 555, 556, 557, 558, 559
 560, 561, 562, 563, 564, 565, 566
*Elset, elset=_PickedSet2, internal
   1,   2,   3,   4,   5,   6,   7,   8,   9,  10,  11,  12,  13,  14,  15,  16
  17,  18,  19,  20,  21,  22,  23,  24,  25,  26,  27,  28,  29,  30,  31,  32
  33,  34,  35,  36,  37,  38,  39,  40,  41,  42,  43,  44,  45,  46,  47,  48
  49,  50,  51,  52,  53,  54,  55,  56,  57,  58,  59,  60,  61,  62,  63,  64
  65,  66,  67,  68,  69,  70,  71,  72,  73,  74,  75,  76,  77,  78,  79,  80
  81,  82,  83,  84,  85,  86,  87,  88,  89,  90,  91,  92, 737, 738, 739, 740
 741, 742, 743, 744, 745, 746, 747, 748, 749, 750, 751, 752, 753, 754, 755, 756
 757, 758, 759, 760, 761, 762, 763, 764, 765, 766, 767, 768, 769, 770, 771, 772
 773, 774, 775, 776, 777, 778, 779, 780, 781, 782, 783, 784, 785, 786, 787, 788
 789, 790, 791, 792, 793, 794, 795, 796, 797, 798, 799, 800, 801, 802, 803, 804
 805, 806, 807, 808, 809, 810, 811, 812, 813, 814, 815, 816, 817, 818, 819, 820
 821, 822, 823, 824, 825, 826, 827, 828
*Nset, nset=_PickedSet3, internal
   2,   3,   4,   6,   7,  14,  15,  16,  17,  18,  19,  20,  21,  22,  23,  24
  25,  26,  27,  28,  29,  30,  31,  32,  33,  34,  35,  36,  37,  38,  39,  40
  41,  42,  43,  44,  45,  46,  47,  48,  49,  50,  51,  52,  53,  54,  55,  56
  57,  58,  59,  60,  61,  62,  63,  64,  65,  66,  67,  68,  69,  70,  71,  72
  73,  74,  75,  76,  77,  78,  79,  80,  81,  82,  83,  84,  85,  86,  87,  88
  89,  90,  91,  92,  93,  94,  95,  96,  97,  98,  99, 100, 101, 102, 103, 195
 196, 197, 198, 199, 200, 201, 202, 203, 204, 205, 206, 207, 208, 209, 210, 211
 212, 213, 214, 215, 216, 217, 218, 219, 220, 221, 222, 223, 224, 225, 226, 227
 228, 229, 230, 231, 232, 233, 234, 235, 236, 237, 238, 239, 240, 241, 242, 243
 244, 245, 246, 247, 248, 249, 250, 251, 252, 253, 254, 255, 256, 257, 258, 259
 260, 261, 262, 263, 264, 265, 266, 267, 268, 269, 270, 271, 272, 273, 274, 275
 276, 277, 278, 279, 280, 281, 282, 283, 284, 285, 286, 287, 288, 289, 567, 568
 569, 570, 571, 572, 573, 574, 575, 576, 577, 578, 579, 580, 581, 582, 583, 584
 585, 586, 587, 588, 589, 590, 591, 592, 593, 594, 595, 596, 597, 598, 599, 600
 601, 602, 603, 604, 605, 606, 607, 608, 609, 610, 611, 612, 613, 614, 615, 616
 617, 618, 619, 620, 621, 622, 623, 624, 625, 626, 627, 628, 629, 630, 631, 632
 633, 634, 635, 636, 637, 638, 639, 640, 641, 642, 643, 644, 645, 646, 647, 648
 649, 650, 651, 652, 653, 654, 655, 656, 657, 658, 659, 660, 661, 662, 663, 664
 665, 666, 667, 668, 669, 670, 671, 672, 673, 674, 675, 676, 677, 678, 679, 680
 681, 682, 683, 684, 685, 686, 687, 688, 689, 690, 691, 692, 693, 694, 695, 696
 697, 698, 699, 700, 701, 702, 703, 704, 705, 706, 707, 708, 709, 710, 711, 712
 713, 714, 715, 716, 717, 718, 719, 720, 721, 722, 723, 724, 725, 726, 727, 728
 729, 730, 731, 732, 733, 734, 735, 736, 737, 738, 739, 740, 741, 742, 743, 744
 745, 746, 747, 748
*Elset, elset=_PickedSet3, internal, generate
  93,  368,    1
*Nset, nset=_PickedSet4, internal
   6,   7,   8,   9,  10,  11, 197, 198, 199, 200, 201, 202, 203, 204, 205, 206
 207, 208, 209, 210, 211, 212, 213, 214, 215, 216, 217, 218, 219, 220, 221, 222
 223, 224, 225, 226, 227, 228, 229, 230, 231, 232, 233, 234, 235, 236, 237, 238
 239, 240, 241, 242, 243, 244, 245, 246, 247, 248, 249, 250, 251, 252, 253, 254
 255, 256, 257, 258, 259, 260, 261, 262, 263, 264, 265, 266, 267, 268, 269, 270
 271, 272, 273, 274, 275, 276, 277, 278, 279, 280, 281, 282, 283, 284, 285, 286
 287, 290, 291, 292, 293, 294, 295, 296, 297, 298, 299, 300, 301, 302, 303, 304
 305, 306, 307, 308, 309, 310, 311, 312, 313, 314, 315, 316, 317, 318, 319, 320
 321, 322, 323, 324, 325, 326, 327, 328, 329, 330, 331, 332, 333, 334, 335, 336
 337, 338, 339, 340, 341, 342, 343, 344, 345, 346, 347, 348, 349, 350, 351, 352
 353, 354, 355, 356, 357, 358, 359, 360, 361, 362, 363, 364, 365, 366, 367, 368
 369, 370, 371, 372, 373, 374, 375, 376, 377, 378, 379, 380, 381, 382, 383, 384
 385, 386, 387, 388, 389, 390, 391, 392, 393, 394, 395, 396, 397, 398, 399, 400
 401, 402, 403, 404, 405, 406, 407, 408, 409, 410, 411, 412, 413, 414, 415, 416
 417, 418, 419, 420, 421, 422, 423, 424, 425, 426, 427, 428, 429, 430, 431, 432
 433, 434, 435, 436, 437, 438, 439, 440, 441, 442, 443, 444, 445, 446, 447, 448
 449, 450, 451, 452, 453, 454, 455, 456, 457, 458, 459, 460, 461, 462, 463, 464
 465, 466, 467, 468, 469, 470, 471, 472, 473, 474, 475, 749, 750, 751, 752, 753
 754, 755, 756, 757, 758, 759, 760, 761, 762, 763, 764, 765, 766, 767, 768, 769
 770, 771, 772, 773, 774, 775, 776, 777, 778, 779, 780, 781, 782, 783, 784, 785
 786, 787, 788, 789, 790, 791, 792, 793, 794, 795, 796, 797, 798, 799, 800, 801
 802, 803, 804, 805, 806, 807, 808, 809, 810, 811, 812, 813, 814, 815, 816, 817
 818, 819, 820, 821, 822, 823, 824, 825, 826, 827, 828, 829, 830, 831, 832, 833
 834, 835, 836, 837, 838, 839, 840, 841, 842, 843, 844, 845, 846, 847, 848, 849
 850, 851, 852, 853, 854, 855, 856, 857, 858, 859, 860, 861, 862, 863, 864, 865
 866, 867, 868, 869, 870, 871, 872, 873, 874, 875, 876, 877, 878, 879, 880, 881
 882, 883, 884, 885, 886, 887, 888, 889, 890, 891, 892, 893, 894, 895, 896, 897
 898, 899, 900, 901, 902, 903, 904, 905, 906, 907, 908, 909, 910, 911, 912, 913
 914, 915, 916, 917, 918, 919, 920, 921, 922, 923, 924, 925, 926, 927, 928, 929
 930,
*Elset, elset=_PickedSet4, internal, generate
 369,  736,    1
** Section: Section-1
*Shell Section, elset=_PickedSet2, material=Material-1
18., 5
** Section: Section-2
*Shell Section, elset=_PickedSet3, material=Material-1
19., 5
** Section: Section-3
*Shell Section, elset=_PickedSet4, material=Material-1
20., 5
*End Instance
**  
*Nset, nset=_PickedSet5, internal, instance=Part-1-1
 3,
*Nset, nset=_PickedSet6, internal, instance=Part-1-1
   6,   8,  10, 290, 383
*Elset, elset=_PickedSet6, internal, instance=Part-1-1
 369, 370, 553, 554
*Nset, nset=_PickedSet7, internal, instance=Part-1-1
   7,   9,  11, 382, 384
*Elset, elset=_PickedSet7, internal, instance=Part-1-1
 551, 552, 735, 736
*End Assembly
** 
** MATERIALS
** 
*Material, name=Material-1
*Elastic
206000., 0.3
*Plastic
355.,0.
** ----------------------------------------------------------------
** 
** STEP: Step-1
** 
*Step, name=Step-1, nlgeom=YES
*Static
0.01, 1., 1e-05, 0.01
** 
** BOUNDARY CONDITIONS
** 
** Name: BC-1 Type: Displacement/Rotation
*Boundary
_PickedSet6, 1, 1
_PickedSet6, 2, 2
_PickedSet6, 3, 3
** Name: BC-2 Type: Displacement/Rotation
*Boundary
_PickedSet7, 1, 1
_PickedSet7, 2, 2
** 
** LOADS
** 
** Name: Load-1   Type: Concentrated force
*Cload
_PickedSet5, 2, -1000.
** 
** OUTPUT REQUESTS
** 
*Restart, write, frequency=0
** 
** FIELD OUTPUT: F-Output-1
** 
*Output, field, variable=PRESELECT
** 
** HISTORY OUTPUT: H-Output-1
** 
*Output, history, variable=PRESELECT
*End Step
