*Heading
** Job name: Job-3 Model name: Model-1
** Generated by: Abaqus/CAE Learning Edition 2024
*Preprint, echo=NO, model=NO, history=NO, contact=NO
**
** PARTS
**
*Part, name=Part-3
*Node
      1,        -600.,         150.,         710.
      2,        -600.,         150.,         750.
      3,         400.,         150.,         750.
      4,         400.,         150.,         710.
      5,        -600.,         150.,         790.
      6,         400.,         150.,         790.
      7,         280.,         120.,         750.
      8,         300.,         120.,         750.
      9,         300.,         120.,           0.
     10,         280.,         120.,           0.
     11,         320.,         120.,         750.
     12,         320.,         120.,           0.
     13,         120.,         120.,         750.
     14,         100.,         120.,         750.
     15,         100.,         120.,           0.
     16,         120.,         120.,           0.
     17,          80.,         120.,         750.
     18,         100.,         120.,        1500.
     19,          80.,         120.,        1500.
     20,         300.,           0.,         750.
     21,         300.,           0.,           0.
     22,        -480.,         120.,         750.
     23,        -500.,         120.,         750.
     24,        -500.,         120.,           0.
     25,        -480.,         120.,           0.
     26,        -520.,         120.,         750.
     27,        -500.,         120.,        1500.
     28,        -520.,         120.,        1500.
     29,         -80.,         120.,         750.
     30,        -100.,         120.,         750.
     31,        -100.,         120.,           0.
     32,         -80.,         120.,           0.
     33,        -120.,         120.,         750.
     34,        -100.,         120.,        1500.
     35,        -120.,         120.,        1500.
     36,         100.,           0.,         750.
     37,         100.,           0.,           0.
     38,        -500.,           0.,         750.
     39,        -500.,           0.,        1500.
     40,        -100.,           0.,         750.
     41,        -100.,           0.,           0.
     42,        -300.,           0.,         750.
     43,        -300.,           0.,        1500.
     44,        -300.,           0.,           0.
     45,        -300.,         120.,         750.
     46,        -300.,         120.,        1500.
     47,        -280.,         120.,         750.
     48,        -280.,         120.,        1500.
     49,        -320.,         120.,         750.
     50,        -300.,         120.,           0.
     51,        -320.,         120.,           0.
     52,         320.,         120.,        1500.
     53,         300.,         120.,        1500.
     54,         300.,           0.,        1500.
     55,         100.,           0.,        1500.
     56,        -100.,           0.,        1500.
     57,        -500.,           0.,           0.
     58,        -520.,         120.,           0.
     59,         -80.,         120.,        1500.
     60,        -120.,         120.,           0.
     61,         120.,         120.,        1500.
     62,          80.,         120.,           0.
     63,        -320.,         120.,        1500.
     64,        -280.,         120.,           0.
     65,        -480.,         120.,        1500.
     66,         280.,         120.,        1500.
     67,        -600.,           0.,         750.
     68,         400.,           0.,         750.
     69,  -523.076904,         150.,         750.
     70,  -446.153839,         150.,         750.
     71,  -369.230774,         150.,         750.
     72,  -292.307678,         150.,         750.
     73,  -215.384613,         150.,         750.
     74,  -138.461533,         150.,         750.
     75,  -61.5384598,         150.,         750.
     76,   15.3846149,         150.,         750.
     77,   92.3076935,         150.,         750.
     78,   169.230774,         150.,         750.
     79,   246.153839,         150.,         750.
     80,   323.076935,         150.,         750.
     81,   323.076935,         150.,         710.
     82,   246.153839,         150.,         710.
     83,   169.230774,         150.,         710.
     84,   92.3076935,         150.,         710.
     85,   15.3846149,         150.,         710.
     86,  -61.5384598,         150.,         710.
     87,  -138.461533,         150.,         710.
     88,  -215.384613,         150.,         710.
     89,  -292.307678,         150.,         710.
     90,  -369.230774,         150.,         710.
     91,  -446.153839,         150.,         710.
     92,  -523.076904,         150.,         710.
     93,  -523.076904,         150.,         790.
     94,  -446.153839,         150.,         790.
     95,  -369.230774,         150.,         790.
     96,  -292.307678,         150.,         790.
     97,  -215.384613,         150.,         790.
     98,  -138.461533,         150.,         790.
     99,  -61.5384598,         150.,         790.
    100,   15.3846149,         150.,         790.
    101,   92.3076935,         150.,         790.
    102,   169.230774,         150.,         790.
    103,   246.153839,         150.,         790.
    104,   323.076935,         150.,         790.
    105,         300.,         120.,         675.
    106,         300.,         120.,         600.
    107,         300.,         120.,         525.
    108,         300.,         120.,         450.
    109,         300.,         120.,         375.
    110,         300.,         120.,         300.
    111,         300.,         120.,         225.
    112,         300.,         120.,         150.
    113,         300.,         120.,          75.
    114,         280.,         120.,          75.
    115,         280.,         120.,         150.
    116,         280.,         120.,         225.
    117,         280.,         120.,         300.
    118,         280.,         120.,         375.
    119,         280.,         120.,         450.
    120,         280.,         120.,         525.
    121,         280.,         120.,         600.
    122,         280.,         120.,         675.
    123,         320.,         120.,          75.
    124,         320.,         120.,         150.
    125,         320.,         120.,         225.
    126,         320.,         120.,         300.
    127,         320.,         120.,         375.
    128,         320.,         120.,         450.
    129,         320.,         120.,         525.
    130,         320.,         120.,         600.
    131,         320.,         120.,         675.
    132,         100.,         120.,         675.
    133,         100.,         120.,         600.
    134,         100.,         120.,         525.
    135,         100.,         120.,         450.
    136,         100.,         120.,         375.
    137,         100.,         120.,         300.
    138,         100.,         120.,         225.
    139,         100.,         120.,         150.
    140,         100.,         120.,          75.
    141,         120.,         120.,          75.
    142,         120.,         120.,         150.
    143,         120.,         120.,         225.
    144,         120.,         120.,         300.
    145,         120.,         120.,         375.
    146,         120.,         120.,         450.
    147,         120.,         120.,         525.
    148,         120.,         120.,         600.
    149,         120.,         120.,         675.
    150,         100.,         120.,         825.
    151,         100.,         120.,         900.
    152,         100.,         120.,         975.
    153,         100.,         120.,        1050.
    154,         100.,         120.,        1125.
    155,         100.,         120.,        1200.
    156,         100.,         120.,        1275.
    157,         100.,         120.,        1350.
    158,         100.,         120.,        1425.
    159,          80.,         120.,        1425.
    160,          80.,         120.,        1350.
    161,          80.,         120.,        1275.
    162,          80.,         120.,        1200.
    163,          80.,         120.,        1125.
    164,          80.,         120.,        1050.
    165,          80.,         120.,         975.
    166,          80.,         120.,         900.
    167,          80.,         120.,         825.
    168,         300.,          60.,         750.
    169,         300.,           0.,         675.
    170,         300.,           0.,         600.
    171,         300.,           0.,         525.
    172,         300.,           0.,         450.
    173,         300.,           0.,         375.
    174,         300.,           0.,         300.
    175,         300.,           0.,         225.
    176,         300.,           0.,         150.
    177,         300.,           0.,          75.
    178,         300.,          60.,           0.
    179,        -500.,         120.,         675.
    180,        -500.,         120.,         600.
    181,        -500.,         120.,         525.
    182,        -500.,         120.,         450.
    183,        -500.,         120.,         375.
    184,        -500.,         120.,         300.
    185,        -500.,         120.,         225.
    186,        -500.,         120.,         150.
    187,        -500.,         120.,          75.
    188,        -480.,         120.,          75.
    189,        -480.,         120.,         150.
    190,        -480.,         120.,         225.
    191,        -480.,         120.,         300.
    192,        -480.,         120.,         375.
    193,        -480.,         120.,         450.
    194,        -480.,         120.,         525.
    195,        -480.,         120.,         600.
    196,        -480.,         120.,         675.
    197,        -500.,         120.,         825.
    198,        -500.,         120.,         900.
    199,        -500.,         120.,         975.
    200,        -500.,         120.,        1050.
    201,        -500.,         120.,        1125.
    202,        -500.,         120.,        1200.
    203,        -500.,         120.,        1275.
    204,        -500.,         120.,        1350.
    205,        -500.,         120.,        1425.
    206,        -520.,         120.,        1425.
    207,        -520.,         120.,        1350.
    208,        -520.,         120.,        1275.
    209,        -520.,         120.,        1200.
    210,        -520.,         120.,        1125.
    211,        -520.,         120.,        1050.
    212,        -520.,         120.,         975.
    213,        -520.,         120.,         900.
    214,        -520.,         120.,         825.
    215,        -100.,         120.,         675.
    216,        -100.,         120.,         600.
    217,        -100.,         120.,         525.
    218,        -100.,         120.,         450.
    219,        -100.,         120.,         375.
    220,        -100.,         120.,         300.
    221,        -100.,         120.,         225.
    222,        -100.,         120.,         150.
    223,        -100.,         120.,          75.
    224,         -80.,         120.,          75.
    225,         -80.,         120.,         150.
    226,         -80.,         120.,         225.
    227,         -80.,         120.,         300.
    228,         -80.,         120.,         375.
    229,         -80.,         120.,         450.
    230,         -80.,         120.,         525.
    231,         -80.,         120.,         600.
    232,         -80.,         120.,         675.
    233,        -100.,         120.,         825.
    234,        -100.,         120.,         900.
    235,        -100.,         120.,         975.
    236,        -100.,         120.,        1050.
    237,        -100.,         120.,        1125.
    238,        -100.,         120.,        1200.
    239,        -100.,         120.,        1275.
    240,        -100.,         120.,        1350.
    241,        -100.,         120.,        1425.
    242,        -120.,         120.,        1425.
    243,        -120.,         120.,        1350.
    244,        -120.,         120.,        1275.
    245,        -120.,         120.,        1200.
    246,        -120.,         120.,        1125.
    247,        -120.,         120.,        1050.
    248,        -120.,         120.,         975.
    249,        -120.,         120.,         900.
    250,        -120.,         120.,         825.
    251,         100.,          60.,         750.
    252,         100.,           0.,         675.
    253,         100.,           0.,         600.
    254,         100.,           0.,         525.
    255,         100.,           0.,         450.
    256,         100.,           0.,         375.
    257,         100.,           0.,         300.
    258,         100.,           0.,         225.
    259,         100.,           0.,         150.
    260,         100.,           0.,          75.
    261,         100.,          60.,           0.
    262,   233.333328,           0.,         750.
    263,   166.666672,           0.,         750.
    264,   166.666672,           0.,           0.
    265,   233.333328,           0.,           0.
    266,        -500.,          60.,         750.
    267,        -500.,           0.,         825.
    268,        -500.,           0.,         900.
    269,        -500.,           0.,         975.
    270,        -500.,           0.,        1050.
    271,        -500.,           0.,        1125.
    272,        -500.,           0.,        1200.
    273,        -500.,           0.,        1275.
    274,        -500.,           0.,        1350.
    275,        -500.,           0.,        1425.
    276,        -500.,          60.,        1500.
    277,        -100.,          60.,         750.
    278,        -100.,           0.,         675.
    279,        -100.,           0.,         600.
    280,        -100.,           0.,         525.
    281,        -100.,           0.,         450.
    282,        -100.,           0.,         375.
    283,        -100.,           0.,         300.
    284,        -100.,           0.,         225.
    285,        -100.,           0.,         150.
    286,        -100.,           0.,          75.
    287,        -100.,          60.,           0.
    288,   33.3333321,           0.,         750.
    289,  -33.3333321,           0.,         750.
    290,  -33.3333321,           0.,           0.
    291,   33.3333321,           0.,           0.
    292,  -433.333344,           0.,         750.
    293,  -366.666656,           0.,         750.
    294,        -300.,           0.,         825.
    295,        -300.,           0.,         900.
    296,        -300.,           0.,         975.
    297,        -300.,           0.,        1050.
    298,        -300.,           0.,        1125.
    299,        -300.,           0.,        1200.
    300,        -300.,           0.,        1275.
    301,        -300.,           0.,        1350.
    302,        -300.,           0.,        1425.
    303,  -366.666656,           0.,        1500.
    304,  -433.333344,           0.,        1500.
    305,  -166.666672,           0.,         750.
    306,  -233.333328,           0.,         750.
    307,        -300.,           0.,         675.
    308,        -300.,           0.,         600.
    309,        -300.,           0.,         525.
    310,        -300.,           0.,         450.
    311,        -300.,           0.,         375.
    312,        -300.,           0.,         300.
    313,        -300.,           0.,         225.
    314,        -300.,           0.,         150.
    315,        -300.,           0.,          75.
    316,  -233.333328,           0.,           0.
    317,  -166.666672,           0.,           0.
    318,        -300.,          60.,         750.
    319,        -300.,         120.,         825.
    320,        -300.,         120.,         900.
    321,        -300.,         120.,         975.
    322,        -300.,         120.,        1050.
    323,        -300.,         120.,        1125.
    324,        -300.,         120.,        1200.
    325,        -300.,         120.,        1275.
    326,        -300.,         120.,        1350.
    327,        -300.,         120.,        1425.
    328,        -300.,          60.,        1500.
    329,        -280.,         120.,        1425.
    330,        -280.,         120.,        1350.
    331,        -280.,         120.,        1275.
    332,        -280.,         120.,        1200.
    333,        -280.,         120.,        1125.
    334,        -280.,         120.,        1050.
    335,        -280.,         120.,         975.
    336,        -280.,         120.,         900.
    337,        -280.,         120.,         825.
    338,        -300.,         120.,         675.
    339,        -300.,         120.,         600.
    340,        -300.,         120.,         525.
    341,        -300.,         120.,         450.
    342,        -300.,         120.,         375.
    343,        -300.,         120.,         300.
    344,        -300.,         120.,         225.
    345,        -300.,         120.,         150.
    346,        -300.,         120.,          75.
    347,        -320.,         120.,          75.
    348,        -320.,         120.,         150.
    349,        -320.,         120.,         225.
    350,        -320.,         120.,         300.
    351,        -320.,         120.,         375.
    352,        -320.,         120.,         450.
    353,        -320.,         120.,         525.
    354,        -320.,         120.,         600.
    355,        -320.,         120.,         675.
    356,         320.,         120.,         825.
    357,         320.,         120.,         900.
    358,         320.,         120.,         975.
    359,         320.,         120.,        1050.
    360,         320.,         120.,        1125.
    361,         320.,         120.,        1200.
    362,         320.,         120.,        1275.
    363,         320.,         120.,        1350.
    364,         320.,         120.,        1425.
    365,         300.,         120.,        1425.
    366,         300.,         120.,        1350.
    367,         300.,         120.,        1275.
    368,         300.,         120.,        1200.
    369,         300.,         120.,        1125.
    370,         300.,         120.,        1050.
    371,         300.,         120.,         975.
    372,         300.,         120.,         900.
    373,         300.,         120.,         825.
    374,         300.,          60.,        1500.
    375,         300.,           0.,        1425.
    376,         300.,           0.,        1350.
    377,         300.,           0.,        1275.
    378,         300.,           0.,        1200.
    379,         300.,           0.,        1125.
    380,         300.,           0.,        1050.
    381,         300.,           0.,         975.
    382,         300.,           0.,         900.
    383,         300.,           0.,         825.
    384,   233.333328,           0.,        1500.
    385,   166.666672,           0.,        1500.
    386,         100.,           0.,        1425.
    387,         100.,           0.,        1350.
    388,         100.,           0.,        1275.
    389,         100.,           0.,        1200.
    390,         100.,           0.,        1125.
    391,         100.,           0.,        1050.
    392,         100.,           0.,         975.
    393,         100.,           0.,         900.
    394,         100.,           0.,         825.
    395,   33.3333321,           0.,        1500.
    396,  -33.3333321,           0.,        1500.
    397,        -100.,           0.,        1425.
    398,        -100.,           0.,        1350.
    399,        -100.,           0.,        1275.
    400,        -100.,           0.,        1200.
    401,        -100.,           0.,        1125.
    402,        -100.,           0.,        1050.
    403,        -100.,           0.,         975.
    404,        -100.,           0.,         900.
    405,        -100.,           0.,         825.
    406,  -166.666672,           0.,        1500.
    407,  -233.333328,           0.,        1500.
    408,        -500.,           0.,         675.
    409,        -500.,           0.,         600.
    410,        -500.,           0.,         525.
    411,        -500.,           0.,         450.
    412,        -500.,           0.,         375.
    413,        -500.,           0.,         300.
    414,        -500.,           0.,         225.
    415,        -500.,           0.,         150.
    416,        -500.,           0.,          75.
    417,  -433.333344,           0.,           0.
    418,  -366.666656,           0.,           0.
    419,        -500.,          60.,           0.
    420,        -520.,         120.,         675.
    421,        -520.,         120.,         600.
    422,        -520.,         120.,         525.
    423,        -520.,         120.,         450.
    424,        -520.,         120.,         375.
    425,        -520.,         120.,         300.
    426,        -520.,         120.,         225.
    427,        -520.,         120.,         150.
    428,        -520.,         120.,          75.
    429,         -80.,         120.,         825.
    430,         -80.,         120.,         900.
    431,         -80.,         120.,         975.
    432,         -80.,         120.,        1050.
    433,         -80.,         120.,        1125.
    434,         -80.,         120.,        1200.
    435,         -80.,         120.,        1275.
    436,         -80.,         120.,        1350.
    437,         -80.,         120.,        1425.
    438,        -120.,         120.,         675.
    439,        -120.,         120.,         600.
    440,        -120.,         120.,         525.
    441,        -120.,         120.,         450.
    442,        -120.,         120.,         375.
    443,        -120.,         120.,         300.
    444,        -120.,         120.,         225.
    445,        -120.,         120.,         150.
    446,        -120.,         120.,          75.
    447,        -100.,          60.,        1500.
    448,         120.,         120.,         825.
    449,         120.,         120.,         900.
    450,         120.,         120.,         975.
    451,         120.,         120.,        1050.
    452,         120.,         120.,        1125.
    453,         120.,         120.,        1200.
    454,         120.,         120.,        1275.
    455,         120.,         120.,        1350.
    456,         120.,         120.,        1425.
    457,          80.,         120.,         675.
    458,          80.,         120.,         600.
    459,          80.,         120.,         525.
    460,          80.,         120.,         450.
    461,          80.,         120.,         375.
    462,          80.,         120.,         300.
    463,          80.,         120.,         225.
    464,          80.,         120.,         150.
    465,          80.,         120.,          75.
    466,         100.,          60.,        1500.
    467,        -320.,         120.,         825.
    468,        -320.,         120.,         900.
    469,        -320.,         120.,         975.
    470,        -320.,         120.,        1050.
    471,        -320.,         120.,        1125.
    472,        -320.,         120.,        1200.
    473,        -320.,         120.,        1275.
    474,        -320.,         120.,        1350.
    475,        -320.,         120.,        1425.
    476,        -280.,         120.,         675.
    477,        -280.,         120.,         600.
    478,        -280.,         120.,         525.
    479,        -280.,         120.,         450.
    480,        -280.,         120.,         375.
    481,        -280.,         120.,         300.
    482,        -280.,         120.,         225.
    483,        -280.,         120.,         150.
    484,        -280.,         120.,          75.
    485,        -300.,          60.,           0.
    486,        -480.,         120.,         825.
    487,        -480.,         120.,         900.
    488,        -480.,         120.,         975.
    489,        -480.,         120.,        1050.
    490,        -480.,         120.,        1125.
    491,        -480.,         120.,        1200.
    492,        -480.,         120.,        1275.
    493,        -480.,         120.,        1350.
    494,        -480.,         120.,        1425.
    495,         280.,         120.,         825.
    496,         280.,         120.,         900.
    497,         280.,         120.,         975.
    498,         280.,         120.,        1050.
    499,         280.,         120.,        1125.
    500,         280.,         120.,        1200.
    501,         280.,         120.,        1275.
    502,         280.,         120.,        1350.
    503,         280.,         120.,        1425.
    504,        -600.,          75.,         750.
    505,         400.,          75.,         750.
    506,         300.,          60.,         675.
    507,         300.,          60.,         600.
    508,         300.,          60.,         525.
    509,         300.,          60.,         450.
    510,         300.,          60.,         375.
    511,         300.,          60.,         300.
    512,         300.,          60.,         225.
    513,         300.,          60.,         150.
    514,         300.,          60.,          75.
    515,         100.,          60.,         675.
    516,         100.,          60.,         600.
    517,         100.,          60.,         525.
    518,         100.,          60.,         450.
    519,         100.,          60.,         375.
    520,         100.,          60.,         300.
    521,         100.,          60.,         225.
    522,         100.,          60.,         150.
    523,         100.,          60.,          75.
    524,   233.333328,           0.,         675.
    525,   166.666672,           0.,         675.
    526,   233.333328,           0.,         600.
    527,   166.666672,           0.,         600.
    528,   233.333328,           0.,         525.
    529,   166.666672,           0.,         525.
    530,   233.333328,           0.,         450.
    531,   166.666672,           0.,         450.
    532,   233.333328,           0.,         375.
    533,   166.666672,           0.,         375.
    534,   233.333328,           0.,         300.
    535,   166.666672,           0.,         300.
    536,   233.333328,           0.,         225.
    537,   166.666672,           0.,         225.
    538,   233.333328,           0.,         150.
    539,   166.666672,           0.,         150.
    540,   233.333328,           0.,          75.
    541,   166.666672,           0.,          75.
    542,        -500.,          60.,         825.
    543,        -500.,          60.,         900.
    544,        -500.,          60.,         975.
    545,        -500.,          60.,        1050.
    546,        -500.,          60.,        1125.
    547,        -500.,          60.,        1200.
    548,        -500.,          60.,        1275.
    549,        -500.,          60.,        1350.
    550,        -500.,          60.,        1425.
    551,        -100.,          60.,         675.
    552,        -100.,          60.,         600.
    553,        -100.,          60.,         525.
    554,        -100.,          60.,         450.
    555,        -100.,          60.,         375.
    556,        -100.,          60.,         300.
    557,        -100.,          60.,         225.
    558,        -100.,          60.,         150.
    559,        -100.,          60.,          75.
    560,   33.3333321,           0.,         675.
    561,  -33.3333321,           0.,         675.
    562,   33.3333321,           0.,         600.
    563,  -33.3333321,           0.,         600.
    564,   33.3333321,           0.,         525.
    565,  -33.3333321,           0.,         525.
    566,   33.3333321,           0.,         450.
    567,  -33.3333321,           0.,         450.
    568,   33.3333321,           0.,         375.
    569,  -33.3333321,           0.,         375.
    570,   33.3333321,           0.,         300.
    571,  -33.3333321,           0.,         300.
    572,   33.3333321,           0.,         225.
    573,  -33.3333321,           0.,         225.
    574,   33.3333321,           0.,         150.
    575,  -33.3333321,           0.,         150.
    576,   33.3333321,           0.,          75.
    577,  -33.3333321,           0.,          75.
    578,  -433.333344,           0.,         825.
    579,  -366.666656,           0.,         825.
    580,  -433.333344,           0.,         900.
    581,  -366.666656,           0.,         900.
    582,  -433.333344,           0.,         975.
    583,  -366.666656,           0.,         975.
    584,  -433.333344,           0.,        1050.
    585,  -366.666656,           0.,        1050.
    586,  -433.333344,           0.,        1125.
    587,  -366.666656,           0.,        1125.
    588,  -433.333344,           0.,        1200.
    589,  -366.666656,           0.,        1200.
    590,  -433.333344,           0.,        1275.
    591,  -366.666656,           0.,        1275.
    592,  -433.333344,           0.,        1350.
    593,  -366.666656,           0.,        1350.
    594,  -433.333344,           0.,        1425.
    595,  -366.666656,           0.,        1425.
    596,  -166.666672,           0.,         675.
    597,  -233.333328,           0.,         675.
    598,  -166.666672,           0.,         600.
    599,  -233.333328,           0.,         600.
    600,  -166.666672,           0.,         525.
    601,  -233.333328,           0.,         525.
    602,  -166.666672,           0.,         450.
    603,  -233.333328,           0.,         450.
    604,  -166.666672,           0.,         375.
    605,  -233.333328,           0.,         375.
    606,  -166.666672,           0.,         300.
    607,  -233.333328,           0.,         300.
    608,  -166.666672,           0.,         225.
    609,  -233.333328,           0.,         225.
    610,  -166.666672,           0.,         150.
    611,  -233.333328,           0.,         150.
    612,  -166.666672,           0.,          75.
    613,  -233.333328,           0.,          75.
    614,        -300.,          60.,         825.
    615,        -300.,          60.,         900.
    616,        -300.,          60.,         975.
    617,        -300.,          60.,        1050.
    618,        -300.,          60.,        1125.
    619,        -300.,          60.,        1200.
    620,        -300.,          60.,        1275.
    621,        -300.,          60.,        1350.
    622,        -300.,          60.,        1425.
    623,         300.,          60.,         825.
    624,         300.,          60.,         900.
    625,         300.,          60.,         975.
    626,         300.,          60.,        1050.
    627,         300.,          60.,        1125.
    628,         300.,          60.,        1200.
    629,         300.,          60.,        1275.
    630,         300.,          60.,        1350.
    631,         300.,          60.,        1425.
    632,   166.666672,           0.,         825.
    633,   233.333328,           0.,         825.
    634,   166.666672,           0.,         900.
    635,   233.333328,           0.,         900.
    636,   166.666672,           0.,         975.
    637,   233.333328,           0.,         975.
    638,   166.666672,           0.,        1050.
    639,   233.333328,           0.,        1050.
    640,   166.666672,           0.,        1125.
    641,   233.333328,           0.,        1125.
    642,   166.666672,           0.,        1200.
    643,   233.333328,           0.,        1200.
    644,   166.666672,           0.,        1275.
    645,   233.333328,           0.,        1275.
    646,   166.666672,           0.,        1350.
    647,   233.333328,           0.,        1350.
    648,   166.666672,           0.,        1425.
    649,   233.333328,           0.,        1425.
    650,  -33.3333321,           0.,         825.
    651,   33.3333321,           0.,         825.
    652,  -33.3333321,           0.,         900.
    653,   33.3333321,           0.,         900.
    654,  -33.3333321,           0.,         975.
    655,   33.3333321,           0.,         975.
    656,  -33.3333321,           0.,        1050.
    657,   33.3333321,           0.,        1050.
    658,  -33.3333321,           0.,        1125.
    659,   33.3333321,           0.,        1125.
    660,  -33.3333321,           0.,        1200.
    661,   33.3333321,           0.,        1200.
    662,  -33.3333321,           0.,        1275.
    663,   33.3333321,           0.,        1275.
    664,  -33.3333321,           0.,        1350.
    665,   33.3333321,           0.,        1350.
    666,  -33.3333321,           0.,        1425.
    667,   33.3333321,           0.,        1425.
    668,  -233.333328,           0.,         825.
    669,  -166.666672,           0.,         825.
    670,  -233.333328,           0.,         900.
    671,  -166.666672,           0.,         900.
    672,  -233.333328,           0.,         975.
    673,  -166.666672,           0.,         975.
    674,  -233.333328,           0.,        1050.
    675,  -166.666672,           0.,        1050.
    676,  -233.333328,           0.,        1125.
    677,  -166.666672,           0.,        1125.
    678,  -233.333328,           0.,        1200.
    679,  -166.666672,           0.,        1200.
    680,  -233.333328,           0.,        1275.
    681,  -166.666672,           0.,        1275.
    682,  -233.333328,           0.,        1350.
    683,  -166.666672,           0.,        1350.
    684,  -233.333328,           0.,        1425.
    685,  -166.666672,           0.,        1425.
    686,  -366.666656,           0.,         675.
    687,  -433.333344,           0.,         675.
    688,  -366.666656,           0.,         600.
    689,  -433.333344,           0.,         600.
    690,  -366.666656,           0.,         525.
    691,  -433.333344,           0.,         525.
    692,  -366.666656,           0.,         450.
    693,  -433.333344,           0.,         450.
    694,  -366.666656,           0.,         375.
    695,  -433.333344,           0.,         375.
    696,  -366.666656,           0.,         300.
    697,  -433.333344,           0.,         300.
    698,  -366.666656,           0.,         225.
    699,  -433.333344,           0.,         225.
    700,  -366.666656,           0.,         150.
    701,  -433.333344,           0.,         150.
    702,  -366.666656,           0.,          75.
    703,  -433.333344,           0.,          75.
    704,        -500.,          60.,         675.
    705,        -500.,          60.,         600.
    706,        -500.,          60.,         525.
    707,        -500.,          60.,         450.
    708,        -500.,          60.,         375.
    709,        -500.,          60.,         300.
    710,        -500.,          60.,         225.
    711,        -500.,          60.,         150.
    712,        -500.,          60.,          75.
    713,        -100.,          60.,         825.
    714,        -100.,          60.,         900.
    715,        -100.,          60.,         975.
    716,        -100.,          60.,        1050.
    717,        -100.,          60.,        1125.
    718,        -100.,          60.,        1200.
    719,        -100.,          60.,        1275.
    720,        -100.,          60.,        1350.
    721,        -100.,          60.,        1425.
    722,         100.,          60.,         825.
    723,         100.,          60.,         900.
    724,         100.,          60.,         975.
    725,         100.,          60.,        1050.
    726,         100.,          60.,        1125.
    727,         100.,          60.,        1200.
    728,         100.,          60.,        1275.
    729,         100.,          60.,        1350.
    730,         100.,          60.,        1425.
    731,        -300.,          60.,         675.
    732,        -300.,          60.,         600.
    733,        -300.,          60.,         525.
    734,        -300.,          60.,         450.
    735,        -300.,          60.,         375.
    736,        -300.,          60.,         300.
    737,        -300.,          60.,         225.
    738,        -300.,          60.,         150.
    739,        -300.,          60.,          75.
    740,  -458.332611,   95.4010086,         750.
    741,  -258.831757,   92.4608383,         750.
    742,  -57.0106316,   87.9870758,         750.
    743,   138.270584,   90.4754944,         750.
    744,   364.879852,   100.120949,         750.
    745,   -21.639946,   107.567978,         750.
    746,  -162.121445,   117.300255,         750.
    747,   149.441132,   110.602806,         750.
    748,   341.355286,   68.0959625,         750.
    749,  -423.135101,   46.9179459,         750.
    750,   -224.91861,   46.2855225,         750.
    751,  -33.1605988,    37.546875,         750.
    752,   169.462524,   41.7862129,         750.
    753,  -421.081665,   125.240196,         750.
    754,   180.889496,   113.474922,         750.
    755,  -242.798935,   114.468834,         750.
    756,  -383.230774,   78.4831772,         750.
    757,   225.330063,   76.8820724,         750.
    758,   232.175995,   41.7254105,         750.
    759,  -361.759247,    39.547905,         750.
    760,   -335.32193,    83.751564,         750.
    761,  -357.803131,   98.4095764,         750.
    762,  -377.004822,   132.831024,         750.
    763,  -155.192078,   58.4542046,         750.
    764,  -27.9653912,   63.8348999,         750.
    765,   54.2595367,   92.3806534,         750.
    766,   261.098999,   91.3816071,         750.
    767,  -217.524261,   82.3064194,         750.
    768,   26.0096474,   121.716469,         750.
    769,  -550.584534,   94.9748383,         750.
    770,   227.896408,   110.200104,         750.
    771,   26.4511795,   38.9219322,         750.
    772,  -427.256714,    79.726326,         750.
    773,   177.571945,   77.9865799,         750.
    774,   128.291458,   131.924393,         750.
    775,   98.2474213,   130.850632,         750.
    776,   57.0329933,   134.628967,         750.
    777,  -255.074661,   131.791107,         750.
    778,    -332.6409,   127.676414,         750.
    779,  -209.574188,   118.002975,         750.
    780,  -393.375488,   103.817238,         750.
    781,  -361.170929,   64.9318008,         750.
    782,   9.16675186,   74.0266495,         750.
    783,  -175.348312,   84.7747879,         750.
*Element, type=S4
 1,  1,  2, 69, 92
 2, 92, 69, 70, 91
 3, 91, 70, 71, 90
 4, 90, 71, 72, 89
 5, 89, 72, 73, 88
 6, 88, 73, 74, 87
 7, 87, 74, 75, 86
 8, 86, 75, 76, 85
 9, 85, 76, 77, 84
10, 84, 77, 78, 83
11, 83, 78, 79, 82
12, 82, 79, 80, 81
13, 81, 80,  3,  4
14,   2,   5,  93,  69
15,  69,  93,  94,  70
16,  70,  94,  95,  71
17,  71,  95,  96,  72
18,  72,  96,  97,  73
19,  73,  97,  98,  74
20,  74,  98,  99,  75
21,  75,  99, 100,  76
22,  76, 100, 101,  77
23,  77, 101, 102,  78
24,  78, 102, 103,  79
25,  79, 103, 104,  80
26,  80, 104,   6,   3
27,   7,   8, 105, 122
28, 122, 105, 106, 121
29, 121, 106, 107, 120
30, 120, 107, 108, 119
31, 119, 108, 109, 118
32, 118, 109, 110, 117
33, 117, 110, 111, 116
34, 116, 111, 112, 115
35, 115, 112, 113, 114
36, 114, 113,   9,  10
37,  11,   8, 105, 131
38, 131, 105, 106, 130
39, 130, 106, 107, 129
40, 129, 107, 108, 128
41, 128, 108, 109, 127
42, 127, 109, 110, 126
43, 126, 110, 111, 125
44, 125, 111, 112, 124
45, 124, 112, 113, 123
46, 123, 113,   9,  12
47,  13,  14, 132, 149
48, 149, 132, 133, 148
49, 148, 133, 134, 147
50, 147, 134, 135, 146
51, 146, 135, 136, 145
52, 145, 136, 137, 144
53, 144, 137, 138, 143
54, 143, 138, 139, 142
55, 142, 139, 140, 141
56, 141, 140,  15,  16
57,  17,  14, 150, 167
58, 167, 150, 151, 166
59, 166, 151, 152, 165
60, 165, 152, 153, 164
61, 164, 153, 154, 163
62, 163, 154, 155, 162
63, 162, 155, 156, 161
64, 161, 156, 157, 160
65, 160, 157, 158, 159
66, 159, 158,  18,  19
67,   8, 168, 506, 105
68, 168,  20, 169, 506
69, 105, 506, 507, 106
70, 506, 169, 170, 507
71, 106, 507, 508, 107
72, 507, 170, 171, 508
73, 107, 508, 509, 108
74, 508, 171, 172, 509
75, 108, 509, 510, 109
76, 509, 172, 173, 510
77, 109, 510, 511, 110
78, 510, 173, 174, 511
79, 110, 511, 512, 111
80, 511, 174, 175, 512
81, 111, 512, 513, 112
82, 512, 175, 176, 513
83, 112, 513, 514, 113
84, 513, 176, 177, 514
85, 113, 514, 178,   9
86, 514, 177,  21, 178
87,  22,  23, 179, 196
88, 196, 179, 180, 195
89, 195, 180, 181, 194
90, 194, 181, 182, 193
91, 193, 182, 183, 192
92, 192, 183, 184, 191
93, 191, 184, 185, 190
94, 190, 185, 186, 189
95, 189, 186, 187, 188
96, 188, 187,  24,  25
 97,  26,  23, 197, 214
 98, 214, 197, 198, 213
 99, 213, 198, 199, 212
100, 212, 199, 200, 211
101, 211, 200, 201, 210
102, 210, 201, 202, 209
103, 209, 202, 203, 208
104, 208, 203, 204, 207
105, 207, 204, 205, 206
106, 206, 205,  27,  28
107,  29,  30, 215, 232
108, 232, 215, 216, 231
109, 231, 216, 217, 230
110, 230, 217, 218, 229
111, 229, 218, 219, 228
112, 228, 219, 220, 227
113, 227, 220, 221, 226
114, 226, 221, 222, 225
115, 225, 222, 223, 224
116, 224, 223,  31,  32
117,  33,  30, 233, 250
118, 250, 233, 234, 249
119, 249, 234, 235, 248
120, 248, 235, 236, 247
121, 247, 236, 237, 246
122, 246, 237, 238, 245
123, 245, 238, 239, 244
124, 244, 239, 240, 243
125, 243, 240, 241, 242
126, 242, 241,  34,  35
127,  14, 251, 515, 132
128, 251,  36, 252, 515
129, 132, 515, 516, 133
130, 515, 252, 253, 516
131, 133, 516, 517, 134
132, 516, 253, 254, 517
133, 134, 517, 518, 135
134, 517, 254, 255, 518
135, 135, 518, 519, 136
136, 518, 255, 256, 519
137, 136, 519, 520, 137
138, 519, 256, 257, 520
139, 137, 520, 521, 138
140, 520, 257, 258, 521
141, 138, 521, 522, 139
142, 521, 258, 259, 522
143, 139, 522, 523, 140
144, 522, 259, 260, 523
145, 140, 523, 261,  15
146, 523, 260,  37, 261
147,  20, 262, 524, 169
148, 262, 263, 525, 524
149, 263,  36, 252, 525
150, 169, 524, 526, 170
151, 524, 525, 527, 526
152, 525, 252, 253, 527
153, 170, 526, 528, 171
154, 526, 527, 529, 528
155, 527, 253, 254, 529
156, 171, 528, 530, 172
157, 528, 529, 531, 530
158, 529, 254, 255, 531
159, 172, 530, 532, 173
160, 530, 531, 533, 532
161, 531, 255, 256, 533
162, 173, 532, 534, 174
163, 532, 533, 535, 534
164, 533, 256, 257, 535
165, 174, 534, 536, 175
166, 534, 535, 537, 536
167, 535, 257, 258, 537
168, 175, 536, 538, 176
169, 536, 537, 539, 538
170, 537, 258, 259, 539
171, 176, 538, 540, 177
172, 538, 539, 541, 540
173, 539, 259, 260, 541
174, 177, 540, 265,  21
175, 540, 541, 264, 265
176, 541, 260,  37, 264
177,  23, 266, 542, 197
178, 266,  38, 267, 542
179, 197, 542, 543, 198
180, 542, 267, 268, 543
181, 198, 543, 544, 199
182, 543, 268, 269, 544
183, 199, 544, 545, 200
184, 544, 269, 270, 545
185, 200, 545, 546, 201
186, 545, 270, 271, 546
187, 201, 546, 547, 202
188, 546, 271, 272, 547
189, 202, 547, 548, 203
190, 547, 272, 273, 548
191, 203, 548, 549, 204
192, 548, 273, 274, 549
193, 204, 549, 550, 205
194, 549, 274, 275, 550
195, 205, 550, 276,  27
196, 550, 275,  39, 276
197,  30, 277, 551, 215
198, 277,  40, 278, 551
199, 215, 551, 552, 216
200, 551, 278, 279, 552
201, 216, 552, 553, 217
202, 552, 279, 280, 553
203, 217, 553, 554, 218
204, 553, 280, 281, 554
205, 218, 554, 555, 219
206, 554, 281, 282, 555
207, 219, 555, 556, 220
208, 555, 282, 283, 556
209, 220, 556, 557, 221
210, 556, 283, 284, 557
211, 221, 557, 558, 222
212, 557, 284, 285, 558
213, 222, 558, 559, 223
214, 558, 285, 286, 559
215, 223, 559, 287,  31
216, 559, 286,  41, 287
217,  36, 288, 560, 252
218, 288, 289, 561, 560
219, 289,  40, 278, 561
220, 252, 560, 562, 253
221, 560, 561, 563, 562
222, 561, 278, 279, 563
223, 253, 562, 564, 254
224, 562, 563, 565, 564
225, 563, 279, 280, 565
226, 254, 564, 566, 255
227, 564, 565, 567, 566
228, 565, 280, 281, 567
229, 255, 566, 568, 256
230, 566, 567, 569, 568
231, 567, 281, 282, 569
232, 256, 568, 570, 257
233, 568, 569, 571, 570
234, 569, 282, 283, 571
235, 257, 570, 572, 258
236, 570, 571, 573, 572
237, 571, 283, 284, 573
238, 258, 572, 574, 259
239, 572, 573, 575, 574
240, 573, 284, 285, 575
241, 259, 574, 576, 260
242, 574, 575, 577, 576
243, 575, 285, 286, 577
244, 260, 576, 291,  37
245, 576, 577, 290, 291
246, 577, 286,  41, 290
247,  38, 292, 578, 267
248, 292, 293, 579, 578
249, 293,  42, 294, 579
250, 267, 578, 580, 268
251, 578, 579, 581, 580
252, 579, 294, 295, 581
253, 268, 580, 582, 269
254, 580, 581, 583, 582
255, 581, 295, 296, 583
256, 269, 582, 584, 270
257, 582, 583, 585, 584
258, 583, 296, 297, 585
259, 270, 584, 586, 271
260, 584, 585, 587, 586
261, 585, 297, 298, 587
262, 271, 586, 588, 272
263, 586, 587, 589, 588
264, 587, 298, 299, 589
265, 272, 588, 590, 273
266, 588, 589, 591, 590
267, 589, 299, 300, 591
268, 273, 590, 592, 274
269, 590, 591, 593, 592
270, 591, 300, 301, 593
271, 274, 592, 594, 275
272, 592, 593, 595, 594
273, 593, 301, 302, 595
274, 275, 594, 304,  39
275, 594, 595, 303, 304
276, 595, 302,  43, 303
277,  40, 305, 596, 278
278, 305, 306, 597, 596
279, 306,  42, 307, 597
280, 278, 596, 598, 279
281, 596, 597, 599, 598
282, 597, 307, 308, 599
283, 279, 598, 600, 280
284, 598, 599, 601, 600
285, 599, 308, 309, 601
286, 280, 600, 602, 281
287, 600, 601, 603, 602
288, 601, 309, 310, 603
289, 281, 602, 604, 282
290, 602, 603, 605, 604
291, 603, 310, 311, 605
292, 282, 604, 606, 283
293, 604, 605, 607, 606
294, 605, 311, 312, 607
295, 283, 606, 608, 284
296, 606, 607, 609, 608
297, 607, 312, 313, 609
298, 284, 608, 610, 285
299, 608, 609, 611, 610
300, 609, 313, 314, 611
301, 285, 610, 612, 286
302, 610, 611, 613, 612
303, 611, 314, 315, 613
304, 286, 612, 317,  41
305, 612, 613, 316, 317
306, 613, 315,  44, 316
307,  42, 318, 614, 294
308, 318,  45, 319, 614
309, 294, 614, 615, 295
310, 614, 319, 320, 615
311, 295, 615, 616, 296
312, 615, 320, 321, 616
313, 296, 616, 617, 297
314, 616, 321, 322, 617
315, 297, 617, 618, 298
316, 617, 322, 323, 618
317, 298, 618, 619, 299
318, 618, 323, 324, 619
319, 299, 619, 620, 300
320, 619, 324, 325, 620
321, 300, 620, 621, 301
322, 620, 325, 326, 621
323, 301, 621, 622, 302
324, 621, 326, 327, 622
325, 302, 622, 328,  43
326, 622, 327,  46, 328
327,  47,  45, 319, 337
328, 337, 319, 320, 336
329, 336, 320, 321, 335
330, 335, 321, 322, 334
331, 334, 322, 323, 333
332, 333, 323, 324, 332
333, 332, 324, 325, 331
334, 331, 325, 326, 330
335, 330, 326, 327, 329
336, 329, 327,  46,  48
337,  49,  45, 338, 355
338, 355, 338, 339, 354
339, 354, 339, 340, 353
340, 353, 340, 341, 352
341, 352, 341, 342, 351
342, 351, 342, 343, 350
343, 350, 343, 344, 349
344, 349, 344, 345, 348
345, 348, 345, 346, 347
346, 347, 346,  50,  51
347,   8,  11, 356, 373
348, 373, 356, 357, 372
349, 372, 357, 358, 371
350, 371, 358, 359, 370
351, 370, 359, 360, 369
352, 369, 360, 361, 368
353, 368, 361, 362, 367
354, 367, 362, 363, 366
355, 366, 363, 364, 365
356, 365, 364,  52,  53
357,  20, 168, 623, 383
358, 168,   8, 373, 623
359, 383, 623, 624, 382
360, 623, 373, 372, 624
361, 382, 624, 625, 381
362, 624, 372, 371, 625
363, 381, 625, 626, 380
364, 625, 371, 370, 626
365, 380, 626, 627, 379
366, 626, 370, 369, 627
367, 379, 627, 628, 378
368, 627, 369, 368, 628
369, 378, 628, 629, 377
370, 628, 368, 367, 629
371, 377, 629, 630, 376
372, 629, 367, 366, 630
373, 376, 630, 631, 375
374, 630, 366, 365, 631
375, 375, 631, 374,  54
376, 631, 365,  53, 374
377,  36, 263, 632, 394
378, 263, 262, 633, 632
379, 262,  20, 383, 633
380, 394, 632, 634, 393
381, 632, 633, 635, 634
382, 633, 383, 382, 635
383, 393, 634, 636, 392
384, 634, 635, 637, 636
385, 635, 382, 381, 637
386, 392, 636, 638, 391
387, 636, 637, 639, 638
388, 637, 381, 380, 639
389, 391, 638, 640, 390
390, 638, 639, 641, 640
391, 639, 380, 379, 641
392, 390, 640, 642, 389
393, 640, 641, 643, 642
394, 641, 379, 378, 643
395, 389, 642, 644, 388
396, 642, 643, 645, 644
397, 643, 378, 377, 645
398, 388, 644, 646, 387
399, 644, 645, 647, 646
400, 645, 377, 376, 647
401, 387, 646, 648, 386
402, 646, 647, 649, 648
403, 647, 376, 375, 649
404, 386, 648, 385,  55
405, 648, 649, 384, 385
406, 649, 375,  54, 384
407,  40, 289, 650, 405
408, 289, 288, 651, 650
409, 288,  36, 394, 651
410, 405, 650, 652, 404
411, 650, 651, 653, 652
412, 651, 394, 393, 653
413, 404, 652, 654, 403
414, 652, 653, 655, 654
415, 653, 393, 392, 655
416, 403, 654, 656, 402
417, 654, 655, 657, 656
418, 655, 392, 391, 657
419, 402, 656, 658, 401
420, 656, 657, 659, 658
421, 657, 391, 390, 659
422, 401, 658, 660, 400
423, 658, 659, 661, 660
424, 659, 390, 389, 661
425, 400, 660, 662, 399
426, 660, 661, 663, 662
427, 661, 389, 388, 663
428, 399, 662, 664, 398
429, 662, 663, 665, 664
430, 663, 388, 387, 665
431, 398, 664, 666, 397
432, 664, 665, 667, 666
433, 665, 387, 386, 667
434, 397, 666, 396,  56
435, 666, 667, 395, 396
436, 667, 386,  55, 395
437,  42, 306, 668, 294
438, 306, 305, 669, 668
439, 305,  40, 405, 669
440, 294, 668, 670, 295
441, 668, 669, 671, 670
442, 669, 405, 404, 671
443, 295, 670, 672, 296
444, 670, 671, 673, 672
445, 671, 404, 403, 673
446, 296, 672, 674, 297
447, 672, 673, 675, 674
448, 673, 403, 402, 675
449, 297, 674, 676, 298
450, 674, 675, 677, 676
451, 675, 402, 401, 677
452, 298, 676, 678, 299
453, 676, 677, 679, 678
454, 677, 401, 400, 679
455, 299, 678, 680, 300
456, 678, 679, 681, 680
457, 679, 400, 399, 681
458, 300, 680, 682, 301
459, 680, 681, 683, 682
460, 681, 399, 398, 683
461, 301, 682, 684, 302
462, 682, 683, 685, 684
463, 683, 398, 397, 685
464, 302, 684, 407,  43
465, 684, 685, 406, 407
466, 685, 397,  56, 406
467,  42, 293, 686, 307
468, 293, 292, 687, 686
469, 292,  38, 408, 687
470, 307, 686, 688, 308
471, 686, 687, 689, 688
472, 687, 408, 409, 689
473, 308, 688, 690, 309
474, 688, 689, 691, 690
475, 689, 409, 410, 691
476, 309, 690, 692, 310
477, 690, 691, 693, 692
478, 691, 410, 411, 693
479, 310, 692, 694, 311
480, 692, 693, 695, 694
481, 693, 411, 412, 695
482, 311, 694, 696, 312
483, 694, 695, 697, 696
484, 695, 412, 413, 697
485, 312, 696, 698, 313
486, 696, 697, 699, 698
487, 697, 413, 414, 699
488, 313, 698, 700, 314
489, 698, 699, 701, 700
490, 699, 414, 415, 701
491, 314, 700, 702, 315
492, 700, 701, 703, 702
493, 701, 415, 416, 703
494, 315, 702, 418,  44
495, 702, 703, 417, 418
496, 703, 416,  57, 417
497,  38, 266, 704, 408
498, 266,  23, 179, 704
499, 408, 704, 705, 409
500, 704, 179, 180, 705
501, 409, 705, 706, 410
502, 705, 180, 181, 706
503, 410, 706, 707, 411
504, 706, 181, 182, 707
505, 411, 707, 708, 412
506, 707, 182, 183, 708
507, 412, 708, 709, 413
508, 708, 183, 184, 709
509, 413, 709, 710, 414
510, 709, 184, 185, 710
511, 414, 710, 711, 415
512, 710, 185, 186, 711
513, 415, 711, 712, 416
514, 711, 186, 187, 712
515, 416, 712, 419,  57
516, 712, 187,  24, 419
517,  23,  26, 420, 179
518, 179, 420, 421, 180
519, 180, 421, 422, 181
520, 181, 422, 423, 182
521, 182, 423, 424, 183
522, 183, 424, 425, 184
523, 184, 425, 426, 185
524, 185, 426, 427, 186
525, 186, 427, 428, 187
526, 187, 428,  58,  24
527,  30,  29, 429, 233
528, 233, 429, 430, 234
529, 234, 430, 431, 235
530, 235, 431, 432, 236
531, 236, 432, 433, 237
532, 237, 433, 434, 238
533, 238, 434, 435, 239
534, 239, 435, 436, 240
535, 240, 436, 437, 241
536, 241, 437,  59,  34
537,  30,  33, 438, 215
538, 215, 438, 439, 216
539, 216, 439, 440, 217
540, 217, 440, 441, 218
541, 218, 441, 442, 219
542, 219, 442, 443, 220
543, 220, 443, 444, 221
544, 221, 444, 445, 222
545, 222, 445, 446, 223
546, 223, 446,  60,  31
547,  40, 277, 713, 405
548, 277,  30, 233, 713
549, 405, 713, 714, 404
550, 713, 233, 234, 714
551, 404, 714, 715, 403
552, 714, 234, 235, 715
553, 403, 715, 716, 402
554, 715, 235, 236, 716
555, 402, 716, 717, 401
556, 716, 236, 237, 717
557, 401, 717, 718, 400
558, 717, 237, 238, 718
559, 400, 718, 719, 399
560, 718, 238, 239, 719
561, 399, 719, 720, 398
562, 719, 239, 240, 720
563, 398, 720, 721, 397
564, 720, 240, 241, 721
565, 397, 721, 447,  56
566, 721, 241,  34, 447
567,  14,  13, 448, 150
568, 150, 448, 449, 151
569, 151, 449, 450, 152
570, 152, 450, 451, 153
571, 153, 451, 452, 154
572, 154, 452, 453, 155
573, 155, 453, 454, 156
574, 156, 454, 455, 157
575, 157, 455, 456, 158
576, 158, 456,  61,  18
577,  14,  17, 457, 132
578, 132, 457, 458, 133
579, 133, 458, 459, 134
580, 134, 459, 460, 135
581, 135, 460, 461, 136
582, 136, 461, 462, 137
583, 137, 462, 463, 138
584, 138, 463, 464, 139
585, 139, 464, 465, 140
586, 140, 465,  62,  15
587,  36, 251, 722, 394
588, 251,  14, 150, 722
589, 394, 722, 723, 393
590, 722, 150, 151, 723
591, 393, 723, 724, 392
592, 723, 151, 152, 724
593, 392, 724, 725, 391
594, 724, 152, 153, 725
595, 391, 725, 726, 390
596, 725, 153, 154, 726
597, 390, 726, 727, 389
598, 726, 154, 155, 727
599, 389, 727, 728, 388
600, 727, 155, 156, 728
601, 388, 728, 729, 387
602, 728, 156, 157, 729
603, 387, 729, 730, 386
604, 729, 157, 158, 730
605, 386, 730, 466,  55
606, 730, 158,  18, 466
607,  45,  49, 467, 319
608, 319, 467, 468, 320
609, 320, 468, 469, 321
610, 321, 469, 470, 322
611, 322, 470, 471, 323
612, 323, 471, 472, 324
613, 324, 472, 473, 325
614, 325, 473, 474, 326
615, 326, 474, 475, 327
616, 327, 475,  63,  46
617,  45,  47, 476, 338
618, 338, 476, 477, 339
619, 339, 477, 478, 340
620, 340, 478, 479, 341
621, 341, 479, 480, 342
622, 342, 480, 481, 343
623, 343, 481, 482, 344
624, 344, 482, 483, 345
625, 345, 483, 484, 346
626, 346, 484,  64,  50
627,  45, 318, 731, 338
628, 318,  42, 307, 731
629, 338, 731, 732, 339
630, 731, 307, 308, 732
631, 339, 732, 733, 340
632, 732, 308, 309, 733
633, 340, 733, 734, 341
634, 733, 309, 310, 734
635, 341, 734, 735, 342
636, 734, 310, 311, 735
637, 342, 735, 736, 343
638, 735, 311, 312, 736
639, 343, 736, 737, 344
640, 736, 312, 313, 737
641, 344, 737, 738, 345
642, 737, 313, 314, 738
643, 345, 738, 739, 346
644, 738, 314, 315, 739
645, 346, 739, 485,  50
646, 739, 315,  44, 485
647,  23,  22, 486, 197
648, 197, 486, 487, 198
649, 198, 487, 488, 199
650, 199, 488, 489, 200
651, 200, 489, 490, 201
652, 201, 490, 491, 202
653, 202, 491, 492, 203
654, 203, 492, 493, 204
655, 204, 493, 494, 205
656, 205, 494,  65,  27
657,   8,   7, 495, 373
658, 373, 495, 496, 372
659, 372, 496, 497, 371
660, 371, 497, 498, 370
661, 370, 498, 499, 369
662, 369, 499, 500, 368
663, 368, 500, 501, 367
664, 367, 501, 502, 366
665, 366, 502, 503, 365
666, 365, 503,  66,  53
686, 504,  67, 266, 769
687,  26, 769, 266,  23
688,  22,  70,  69,  23
689, 740, 266, 749, 772
690,  45,  49, 760, 318
691,  23, 266, 740,  22
692, 772, 780, 753, 740
693, 778,  72,  71, 762
694, 755, 741, 767, 779
695,  74,  73, 779, 746
696,  30,  75,  74,  33
697, 746, 783, 763,  33
698,  45, 318, 741,  47
699,  40, 289, 751, 277
700, 775,  77, 776,  17
701, 775,  14,  13, 774
702, 743, 747, 774,  13
703, 751, 764, 742, 277
704,  17, 765, 251,  14
705,  30, 277, 742,  29
706, 743, 251, 752, 773
707, 773, 754, 747, 743
708,  14, 251, 743,  13
709,  20,  68, 748, 168
710,   7,   8,  80,  79
711, 748,  68, 505, 744
712,   8, 168, 748,  11
713, 292, 749, 266,  38
714, 293, 759, 749, 292
715,  42, 318, 759, 293
716,  42, 306, 750, 318
717, 783, 767, 750, 763
718,  40, 277, 763, 305
719,  30,  33, 763, 277
720, 764, 782, 745, 742
721, 251, 771, 288,  36
722,  36, 263, 752, 251
723, 262, 758, 752, 263
724,  20, 168, 758, 262
725,   8,   7, 766, 168
726, 745,  75,  29, 742
727, 755, 777,  47, 741
728,  45,  72, 778,  49
729, 756, 780, 772, 749
730,  69,   2, 769,  26
731, 744,   3,  80,  11
732, 782, 765, 768, 745
733,  76,  75, 745, 768
734,  78, 774, 747, 754
735, 741, 318, 750, 767
736, 305, 763, 750, 306
737, 288, 771, 751, 289
738, 766, 757, 758, 168
739,  70,  22, 740, 753
740, 770, 754, 773, 757
741, 777, 755, 779,  73
742, 752, 758, 757, 773
743, 762, 780, 761, 778
744, 759, 781, 756, 749
745, 759, 318, 760, 781
746, 761, 760,  49, 778
747,  71,  70, 753, 762
748, 765,  17, 776, 768
749, 770, 766,   7,  79
750, 779, 767, 783, 746
751, 771, 782, 764, 751
752,  78, 754, 770,  79
753, 771, 251, 765, 782
754, 781, 760, 761, 756
*Element, type=S3
667,  80,   8,  11
668, 748, 744,  11
669,  75,  30,  29
670, 746,  33,  74
671, 744, 505,   3
672, 770, 757, 766
673,  76, 768, 776
674, 769,   2, 504
675, 266,  67,  38
676, 774,  78,  77
677, 775, 774,  77
678,  23,  69,  26
679,  14, 775,  17
680, 776,  77,  76
681, 777,  73,  72
682,  47, 777,  72
683,  72,  45,  47
684, 780, 762, 753
685, 756, 761, 780
*Nset, nset=Set-1, generate
   1,  783,    1
*Elset, elset=Set-1, generate
   1,  754,    1
*Nset, nset=Set-2
   1,   2,   3,   4,   5,   6,   7,   8,  11,  13,  14,  17,  20,  21,  22,  23
  26,  29,  30,  33,  36,  37,  38,  39,  40,  41,  42,  43,  44,  45,  47,  49
  54,  55,  56,  57,  67,  68,  69,  70,  71,  72,  73,  74,  75,  76,  77,  78
  79,  80,  81,  82,  83,  84,  85,  86,  87,  88,  89,  90,  91,  92,  93,  94
  95,  96,  97,  98,  99, 100, 101, 102, 103, 104, 168, 169, 170, 171, 172, 173
 174, 175, 176, 177, 251, 252, 253, 254, 255, 256, 257, 258, 259, 260, 262, 263
 264, 265, 266, 267, 268, 269, 270, 271, 272, 273, 274, 275, 277, 278, 279, 280
 281, 282, 283, 284, 285, 286, 288, 289, 290, 291, 292, 293, 294, 295, 296, 297
 298, 299, 300, 301, 302, 303, 304, 305, 306, 307, 308, 309, 310, 311, 312, 313
 314, 315, 316, 317, 318, 375, 376, 377, 378, 379, 380, 381, 382, 383, 384, 385
 386, 387, 388, 389, 390, 391, 392, 393, 394, 395, 396, 397, 398, 399, 400, 401
 402, 403, 404, 405, 406, 407, 408, 409, 410, 411, 412, 413, 414, 415, 416, 417
 418, 504, 505, 524, 525, 526, 527, 528, 529, 530, 531, 532, 533, 534, 535, 536
 537, 538, 539, 540, 541, 560, 561, 562, 563, 564, 565, 566, 567, 568, 569, 570
 571, 572, 573, 574, 575, 576, 577, 578, 579, 580, 581, 582, 583, 584, 585, 586
 587, 588, 589, 590, 591, 592, 593, 594, 595, 596, 597, 598, 599, 600, 601, 602
 603, 604, 605, 606, 607, 608, 609, 610, 611, 612, 613, 632, 633, 634, 635, 636
 637, 638, 639, 640, 641, 642, 643, 644, 645, 646, 647, 648, 649, 650, 651, 652
 653, 654, 655, 656, 657, 658, 659, 660, 661, 662, 663, 664, 665, 666, 667, 668
 669, 670, 671, 672, 673, 674, 675, 676, 677, 678, 679, 680, 681, 682, 683, 684
 685, 686, 687, 688, 689, 690, 691, 692, 693, 694, 695, 696, 697, 698, 699, 700
 701, 702, 703, 740, 741, 742, 743, 744, 745, 746, 747, 748, 749, 750, 751, 752
 753, 754, 755, 756, 757, 758, 759, 760, 761, 762, 763, 764, 765, 766, 767, 768
 769, 770, 771, 772, 773, 774, 775, 776, 777, 778, 779, 780, 781, 782, 783
*Elset, elset=Set-2
   1,   2,   3,   4,   5,   6,   7,   8,   9,  10,  11,  12,  13,  14,  15,  16
  17,  18,  19,  20,  21,  22,  23,  24,  25,  26, 147, 148, 149, 150, 151, 152
 153, 154, 155, 156, 157, 158, 159, 160, 161, 162, 163, 164, 165, 166, 167, 168
 169, 170, 171, 172, 173, 174, 175, 176, 217, 218, 219, 220, 221, 222, 223, 224
 225, 226, 227, 228, 229, 230, 231, 232, 233, 234, 235, 236, 237, 238, 239, 240
 241, 242, 243, 244, 245, 246, 247, 248, 249, 250, 251, 252, 253, 254, 255, 256
 257, 258, 259, 260, 261, 262, 263, 264, 265, 266, 267, 268, 269, 270, 271, 272
 273, 274, 275, 276, 277, 278, 279, 280, 281, 282, 283, 284, 285, 286, 287, 288
 289, 290, 291, 292, 293, 294, 295, 296, 297, 298, 299, 300, 301, 302, 303, 304
 305, 306, 377, 378, 379, 380, 381, 382, 383, 384, 385, 386, 387, 388, 389, 390
 391, 392, 393, 394, 395, 396, 397, 398, 399, 400, 401, 402, 403, 404, 405, 406
 407, 408, 409, 410, 411, 412, 413, 414, 415, 416, 417, 418, 419, 420, 421, 422
 423, 424, 425, 426, 427, 428, 429, 430, 431, 432, 433, 434, 435, 436, 437, 438
 439, 440, 441, 442, 443, 444, 445, 446, 447, 448, 449, 450, 451, 452, 453, 454
 455, 456, 457, 458, 459, 460, 461, 462, 463, 464, 465, 466, 467, 468, 469, 470
 471, 472, 473, 474, 475, 476, 477, 478, 479, 480, 481, 482, 483, 484, 485, 486
 487, 488, 489, 490, 491, 492, 493, 494, 495, 496, 667, 668, 669, 670, 671, 672
 673, 674, 675, 676, 677, 678, 679, 680, 681, 682, 683, 684, 685, 686, 687, 688
 689, 690, 691, 692, 693, 694, 695, 696, 697, 698, 699, 700, 701, 702, 703, 704
 705, 706, 707, 708, 709, 710, 711, 712, 713, 714, 715, 716, 717, 718, 719, 720
 721, 722, 723, 724, 725, 726, 727, 728, 729, 730, 731, 732, 733, 734, 735, 736
 737, 738, 739, 740, 741, 742, 743, 744, 745, 746, 747, 748, 749, 750, 751, 752
 753, 754
*Nset, nset=Set-3
   1,   2,   3,   4,   5,   6,   7,   8,   9,  10,  11,  12,  13,  14,  15,  16
  17,  18,  19,  20,  21,  22,  23,  24,  25,  26,  27,  28,  29,  30,  31,  32
  33,  34,  35,  36,  37,  38,  39,  40,  41,  42,  43,  44,  45,  46,  47,  48
  49,  50,  51,  52,  53,  54,  55,  56,  57,  58,  59,  60,  61,  62,  63,  64
  65,  66,  67,  68,  69,  70,  71,  72,  73,  74,  75,  76,  77,  78,  79,  80
  81,  82,  83,  84,  85,  86,  87,  88,  89,  90,  91,  92,  93,  94,  95,  96
  97,  98,  99, 100, 101, 102, 103, 104, 105, 106, 107, 108, 109, 110, 111, 112
 113, 114, 115, 116, 117, 118, 119, 120, 121, 122, 123, 124, 125, 126, 127, 128
 129, 130, 131, 132, 133, 134, 135, 136, 137, 138, 139, 140, 141, 142, 143, 144
 145, 146, 147, 148, 149, 150, 151, 152, 153, 154, 155, 156, 157, 158, 159, 160
 161, 162, 163, 164, 165, 166, 167, 168, 169, 170, 171, 172, 173, 174, 175, 176
 177, 178, 179, 180, 181, 182, 183, 184, 185, 186, 187, 188, 189, 190, 191, 192
 193, 194, 195, 196, 197, 198, 199, 200, 201, 202, 203, 204, 205, 206, 207, 208
 209, 210, 211, 212, 213, 214, 215, 216, 217, 218, 219, 220, 221, 222, 223, 224
 225, 226, 227, 228, 229, 230, 231, 232, 233, 234, 235, 236, 237, 238, 239, 240
 241, 242, 243, 244, 245, 246, 247, 248, 249, 250, 251, 252, 253, 254, 255, 256
 257, 258, 259, 260, 261, 262, 263, 266, 267, 268, 269, 270, 271, 272, 273, 274
 275, 276, 277, 278, 279, 280, 281, 282, 283, 284, 285, 286, 287, 288, 289, 292
 293, 294, 295, 296, 297, 298, 299, 300, 301, 302, 305, 306, 307, 308, 309, 310
 311, 312, 313, 314, 315, 318, 319, 320, 321, 322, 323, 324, 325, 326, 327, 328
 329, 330, 331, 332, 333, 334, 335, 336, 337, 338, 339, 340, 341, 342, 343, 344
 345, 346, 347, 348, 349, 350, 351, 352, 353, 354, 355, 356, 357, 358, 359, 360
 361, 362, 363, 364, 365, 366, 367, 368, 369, 370, 371, 372, 373, 374, 375, 376
 377, 378, 379, 380, 381, 382, 383, 386, 387, 388, 389, 390, 391, 392, 393, 394
 397, 398, 399, 400, 401, 402, 403, 404, 405, 408, 409, 410, 411, 412, 413, 414
 415, 416, 419, 420, 421, 422, 423, 424, 425, 426, 427, 428, 429, 430, 431, 432
 433, 434, 435, 436, 437, 438, 439, 440, 441, 442, 443, 444, 445, 446, 447, 448
 449, 450, 451, 452, 453, 454, 455, 456, 457, 458, 459, 460, 461, 462, 463, 464
 465, 466, 467, 468, 469, 470, 471, 472, 473, 474, 475, 476, 477, 478, 479, 480
 481, 482, 483, 484, 485, 486, 487, 488, 489, 490, 491, 492, 493, 494, 495, 496
 497, 498, 499, 500, 501, 502, 503, 504, 505, 506, 507, 508, 509, 510, 511, 512
 513, 514, 515, 516, 517, 518, 519, 520, 521, 522, 523, 542, 543, 544, 545, 546
 547, 548, 549, 550, 551, 552, 553, 554, 555, 556, 557, 558, 559, 614, 615, 616
 617, 618, 619, 620, 621, 622, 623, 624, 625, 626, 627, 628, 629, 630, 631, 704
 705, 706, 707, 708, 709, 710, 711, 712, 713, 714, 715, 716, 717, 718, 719, 720
 721, 722, 723, 724, 725, 726, 727, 728, 729, 730, 731, 732, 733, 734, 735, 736
 737, 738, 739, 740, 741, 742, 743, 744, 745, 746, 747, 748, 749, 750, 751, 752
 753, 754, 755, 756, 757, 758, 759, 760, 761, 762, 763, 764, 765, 766, 767, 768
 769, 770, 771, 772, 773, 774, 775, 776, 777, 778, 779, 780, 781, 782, 783
*Elset, elset=Set-3
   1,   2,   3,   4,   5,   6,   7,   8,   9,  10,  11,  12,  13,  14,  15,  16
  17,  18,  19,  20,  21,  22,  23,  24,  25,  26,  27,  28,  29,  30,  31,  32
  33,  34,  35,  36,  37,  38,  39,  40,  41,  42,  43,  44,  45,  46,  47,  48
  49,  50,  51,  52,  53,  54,  55,  56,  57,  58,  59,  60,  61,  62,  63,  64
  65,  66,  67,  68,  69,  70,  71,  72,  73,  74,  75,  76,  77,  78,  79,  80
  81,  82,  83,  84,  85,  86,  87,  88,  89,  90,  91,  92,  93,  94,  95,  96
  97,  98,  99, 100, 101, 102, 103, 104, 105, 106, 107, 108, 109, 110, 111, 112
 113, 114, 115, 116, 117, 118, 119, 120, 121, 122, 123, 124, 125, 126, 127, 128
 129, 130, 131, 132, 133, 134, 135, 136, 137, 138, 139, 140, 141, 142, 143, 144
 145, 146, 177, 178, 179, 180, 181, 182, 183, 184, 185, 186, 187, 188, 189, 190
 191, 192, 193, 194, 195, 196, 197, 198, 199, 200, 201, 202, 203, 204, 205, 206
 207, 208, 209, 210, 211, 212, 213, 214, 215, 216, 307, 308, 309, 310, 311, 312
 313, 314, 315, 316, 317, 318, 319, 320, 321, 322, 323, 324, 325, 326, 327, 328
 329, 330, 331, 332, 333, 334, 335, 336, 337, 338, 339, 340, 341, 342, 343, 344
 345, 346, 347, 348, 349, 350, 351, 352, 353, 354, 355, 356, 357, 358, 359, 360
 361, 362, 363, 364, 365, 366, 367, 368, 369, 370, 371, 372, 373, 374, 375, 376
 497, 498, 499, 500, 501, 502, 503, 504, 505, 506, 507, 508, 509, 510, 511, 512
 513, 514, 515, 516, 517, 518, 519, 520, 521, 522, 523, 524, 525, 526, 527, 528
 529, 530, 531, 532, 533, 534, 535, 536, 537, 538, 539, 540, 541, 542, 543, 544
 545, 546, 547, 548, 549, 550, 551, 552, 553, 554, 555, 556, 557, 558, 559, 560
 561, 562, 563, 564, 565, 566, 567, 568, 569, 570, 571, 572, 573, 574, 575, 576
 577, 578, 579, 580, 581, 582, 583, 584, 585, 586, 587, 588, 589, 590, 591, 592
 593, 594, 595, 596, 597, 598, 599, 600, 601, 602, 603, 604, 605, 606, 607, 608
 609, 610, 611, 612, 613, 614, 615, 616, 617, 618, 619, 620, 621, 622, 623, 624
 625, 626, 627, 628, 629, 630, 631, 632, 633, 634, 635, 636, 637, 638, 639, 640
 641, 642, 643, 644, 645, 646, 647, 648, 649, 650, 651, 652, 653, 654, 655, 656
 657, 658, 659, 660, 661, 662, 663, 664, 665, 666, 667, 668, 669, 670, 671, 672
 673, 674, 675, 676, 677, 678, 679, 680, 681, 682, 683, 684, 685, 686, 687, 688
 689, 690, 691, 692, 693, 694, 695, 696, 697, 698, 699, 700, 701, 702, 703, 704
 705, 706, 707, 708, 709, 710, 711, 712, 713, 714, 715, 716, 717, 718, 719, 720
 721, 722, 723, 724, 725, 726, 727, 728, 729, 730, 731, 732, 733, 734, 735, 736
 737, 738, 739, 740, 741, 742, 743, 744, 745, 746, 747, 748, 749, 750, 751, 752
 753, 754
*Nset, nset=Set-4
   1,   2,   3,   4,   5,   6,   7,   8,  11,  13,  14,  17,  20,  22,  23,  26
  29,  30,  33,  36,  38,  40,  42,  45,  47,  49,  67,  68,  69,  70,  71,  72
  73,  74,  75,  76,  77,  78,  79,  80,  81,  82,  83,  84,  85,  86,  87,  88
  89,  90,  91,  92,  93,  94,  95,  96,  97,  98,  99, 100, 101, 102, 103, 104
 168, 251, 262, 263, 266, 277, 288, 289, 292, 293, 305, 306, 318, 504, 505, 740
 741, 742, 743, 744, 745, 746, 747, 748, 749, 750, 751, 752, 753, 754, 755, 756
 757, 758, 759, 760, 761, 762, 763, 764, 765, 766, 767, 768, 769, 770, 771, 772
 773, 774, 775, 776, 777, 778, 779, 780, 781, 782, 783
*Elset, elset=Set-4
   1,   2,   3,   4,   5,   6,   7,   8,   9,  10,  11,  12,  13,  14,  15,  16
  17,  18,  19,  20,  21,  22,  23,  24,  25,  26, 667, 668, 669, 670, 671, 672
 673, 674, 675, 676, 677, 678, 679, 680, 681, 682, 683, 684, 685, 686, 687, 688
 689, 690, 691, 692, 693, 694, 695, 696, 697, 698, 699, 700, 701, 702, 703, 704
 705, 706, 707, 708, 709, 710, 711, 712, 713, 714, 715, 716, 717, 718, 719, 720
 721, 722, 723, 724, 725, 726, 727, 728, 729, 730, 731, 732, 733, 734, 735, 736
 737, 738, 739, 740, 741, 742, 743, 744, 745, 746, 747, 748, 749, 750, 751, 752
 753, 754
** Section: transversal
*Shell Section, elset=Set-4, material=Material-1
10., 5
** Region: (longitudinal:Set-3)
*Elset, elset=_I2, internal
  27,  28,  29,  30,  31,  32,  33,  34,  35,  36,  37,  38,  39,  40,  41,  42
  43,  44,  45,  46,  47,  48,  49,  50,  51,  52,  53,  54,  55,  56,  57,  58
  59,  60,  61,  62,  63,  64,  65,  66,  67,  68,  69,  70,  71,  72,  73,  74
  75,  76,  77,  78,  79,  80,  81,  82,  83,  84,  85,  86,  87,  88,  89,  90
  91,  92,  93,  94,  95,  96,  97,  98,  99, 100, 101, 102, 103, 104, 105, 106
 107, 108, 109, 110, 111, 112, 113, 114, 115, 116, 117, 118, 119, 120, 121, 122
 123, 124, 125, 126, 127, 128, 129, 130, 131, 132, 133, 134, 135, 136, 137, 138
 139, 140, 141, 142, 143, 144, 145, 146, 177, 178, 179, 180, 181, 182, 183, 184
 185, 186, 187, 188, 189, 190, 191, 192, 193, 194, 195, 196, 197, 198, 199, 200
 201, 202, 203, 204, 205, 206, 207, 208, 209, 210, 211, 212, 213, 214, 215, 216
 307, 308, 309, 310, 311, 312, 313, 314, 315, 316, 317, 318, 319, 320, 321, 322
 323, 324, 325, 326, 327, 328, 329, 330, 331, 332, 333, 334, 335, 336, 337, 338
 339, 340, 341, 342, 343, 344, 345, 346, 347, 348, 349, 350, 351, 352, 353, 354
 355, 356, 357, 358, 359, 360, 361, 362, 363, 364, 365, 366, 367, 368, 369, 370
 371, 372, 373, 374, 375, 376, 497, 498, 499, 500, 501, 502, 503, 504, 505, 506
 507, 508, 509, 510, 511, 512, 513, 514, 515, 516, 517, 518, 519, 520, 521, 522
 523, 524, 525, 526, 527, 528, 529, 530, 531, 532, 533, 534, 535, 536, 537, 538
 539, 540, 541, 542, 543, 544, 545, 546, 547, 548, 549, 550, 551, 552, 553, 554
 555, 556, 557, 558, 559, 560, 561, 562, 563, 564, 565, 566, 567, 568, 569, 570
 571, 572, 573, 574, 575, 576, 577, 578, 579, 580, 581, 582, 583, 584, 585, 586
 587, 588, 589, 590, 591, 592, 593, 594, 595, 596, 597, 598, 599, 600, 601, 602
 603, 604, 605, 606, 607, 608, 609, 610, 611, 612, 613, 614, 615, 616, 617, 618
 619, 620, 621, 622, 623, 624, 625, 626, 627, 628, 629, 630, 631, 632, 633, 634
 635, 636, 637, 638, 639, 640, 641, 642, 643, 644, 645, 646, 647, 648, 649, 650
 651, 652, 653, 654, 655, 656, 657, 658, 659, 660, 661, 662, 663, 664, 665, 666
** Section: longitudinal
*Shell Section, elset=_I2, material=Material-1
7., 5
** Region: (fundo:Set-2)
*Elset, elset=_I3, internal
 147, 148, 149, 150, 151, 152, 153, 154, 155, 156, 157, 158, 159, 160, 161, 162
 163, 164, 165, 166, 167, 168, 169, 170, 171, 172, 173, 174, 175, 176, 217, 218
 219, 220, 221, 222, 223, 224, 225, 226, 227, 228, 229, 230, 231, 232, 233, 234
 235, 236, 237, 238, 239, 240, 241, 242, 243, 244, 245, 246, 247, 248, 249, 250
 251, 252, 253, 254, 255, 256, 257, 258, 259, 260, 261, 262, 263, 264, 265, 266
 267, 268, 269, 270, 271, 272, 273, 274, 275, 276, 277, 278, 279, 280, 281, 282
 283, 284, 285, 286, 287, 288, 289, 290, 291, 292, 293, 294, 295, 296, 297, 298
 299, 300, 301, 302, 303, 304, 305, 306, 377, 378, 379, 380, 381, 382, 383, 384
 385, 386, 387, 388, 389, 390, 391, 392, 393, 394, 395, 396, 397, 398, 399, 400
 401, 402, 403, 404, 405, 406, 407, 408, 409, 410, 411, 412, 413, 414, 415, 416
 417, 418, 419, 420, 421, 422, 423, 424, 425, 426, 427, 428, 429, 430, 431, 432
 433, 434, 435, 436, 437, 438, 439, 440, 441, 442, 443, 444, 445, 446, 447, 448
 449, 450, 451, 452, 453, 454, 455, 456, 457, 458, 459, 460, 461, 462, 463, 464
 465, 466, 467, 468, 469, 470, 471, 472, 473, 474, 475, 476, 477, 478, 479, 480
 481, 482, 483, 484, 485, 486, 487, 488, 489, 490, 491, 492, 493, 494, 495, 496
** Section: fundo
*Shell Section, elset=_I3, material=Material-1
10., 5
*End Part
**  
**
** ASSEMBLY
**
*Assembly, name=Assembly
**  
*Instance, name=Part-3-1, part=Part-3
*End Instance
**  
*Node
      1,        -100.,           0.,        1500.
*Node
      2,        -100.,           0.,           0.
*Nset, nset=left, instance=Part-3-1
   9,  10,  12,  15,  16,  21,  24,  25,  31,  32,  37,  41,  44,  50,  51,  57
  58,  60,  62,  64, 178, 261, 264, 265, 287, 290, 291, 316, 317, 417, 418, 419
 485,
*Elset, elset=left, instance=Part-3-1
  36,  46,  56,  85,  86,  96, 116, 145, 146, 174, 175, 176, 215, 216, 244, 245
 246, 304, 305, 306, 346, 494, 495, 496, 515, 516, 526, 546, 586, 626, 645, 646
*Nset, nset=rigth, instance=Part-3-1
  18,  19,  27,  28,  34,  35,  39,  43,  46,  48,  52,  53,  54,  55,  56,  59
  61,  63,  65,  66, 276, 303, 304, 328, 374, 384, 385, 395, 396, 406, 407, 447
 466,
*Elset, elset=rigth, instance=Part-3-1
  66, 106, 126, 195, 196, 274, 275, 276, 325, 326, 336, 356, 375, 376, 404, 405
 406, 434, 435, 436, 464, 465, 466, 536, 565, 566, 576, 605, 606, 616, 656, 666
*Nset, nset=_PickedSet14, internal
 2,
*Nset, nset=_PickedSet15, internal
 1,
*Nset, nset=_PickedSet17, internal
 1,
*Nset, nset=_PickedSet18, internal
 2,
*Elset, elset=__PickedSurf16_SPOS, internal, instance=Part-3-1
 147, 148, 149, 150, 151, 152, 153, 154, 155, 156, 157, 158, 159, 160, 161, 162
 163, 164, 165, 166, 167, 168, 169, 170, 171, 172, 173, 174, 175, 176, 217, 218
 219, 220, 221, 222, 223, 224, 225, 226, 227, 228, 229, 230, 231, 232, 233, 234
 235, 236, 237, 238, 239, 240, 241, 242, 243, 244, 245, 246, 247, 248, 249, 250
 251, 252, 253, 254, 255, 256, 257, 258, 259, 260, 261, 262, 263, 264, 265, 266
 267, 268, 269, 270, 271, 272, 273, 274, 275, 276, 277, 278, 279, 280, 281, 282
 283, 284, 285, 286, 287, 288, 289, 290, 291, 292, 293, 294, 295, 296, 297, 298
 299, 300, 301, 302, 303, 304, 305, 306, 377, 378, 379, 380, 381, 382, 383, 384
 385, 386, 387, 388, 389, 390, 391, 392, 393, 394, 395, 396, 397, 398, 399, 400
 401, 402, 403, 404, 405, 406, 407, 408, 409, 410, 411, 412, 413, 414, 415, 416
 417, 418, 419, 420, 421, 422, 423, 424, 425, 426, 427, 428, 429, 430, 431, 432
 433, 434, 435, 436, 437, 438, 439, 440, 441, 442, 443, 444, 445, 446, 447, 448
 449, 450, 451, 452, 453, 454, 455, 456, 457, 458, 459, 460, 461, 462, 463, 464
 465, 466, 467, 468, 469, 470, 471, 472, 473, 474, 475, 476, 477, 478, 479, 480
 481, 482, 483, 484, 485, 486, 487, 488, 489, 490, 491, 492, 493, 494, 495, 496
*Surface, type=ELEMENT, name=_PickedSurf16, internal
__PickedSurf16_SPOS, SPOS
** Constraint: Constraint-1
*Rigid Body, ref node=_PickedSet14, tie nset=left
** Constraint: Constraint-2
*Rigid Body, ref node=_PickedSet15, tie nset=rigth
*End Assembly
** 
** MATERIALS
** 
*Material, name=Material-1
*Elastic
206000., 0.3
** 
** BOUNDARY CONDITIONS
** 
** Name: BC-1 Type: Displacement/Rotation
*Boundary
rigth, 1, 1
rigth, 2, 2
rigth, 3, 3
rigth, 5, 5
rigth, 6, 6
** Name: BC-2 Type: Displacement/Rotation
*Boundary
left, 1, 1
left, 2, 2
left, 3, 3
left, 4, 4
left, 5, 5
left, 6, 6
** ----------------------------------------------------------------
** 
** STEP: Step-1
** 
*Step, name=Step-1, nlgeom=NO
*Static
1., 1., 1e-05, 1.
** 
** LOADS
** 
** Name: Load-r12   Type: Moment
*Cload
_PickedSet17, 4, -100000.
** Name: Load-r22   Type: Moment
*Cload
_PickedSet18, 4, 100000.
** 
** OUTPUT REQUESTS
** 
*Restart, write, frequency=0
** 
** FIELD OUTPUT: F-Output-1
** 
*Output, field, variable=PRESELECT
** 
** HISTORY OUTPUT: H-Output-1
** 
*Output, history, variable=PRESELECT
*End Step
