*Heading
** Job name: Job-1_beam Model name: Model-1
** Generated by: Abaqus/CAE Learning Edition 2024
*Preprint, echo=NO, model=NO, history=NO, contact=NO
**
** PARTS
**
*Part, name=Part-1
*Node
      1,           0.,           0.
      2,         -10.,          15.
      3,         -30.,          15.
      4,         -10.,         -15.
      5,          10.,          15.
      6,          10.,         -15.
      7,          30.,         -15.
      8,          30.,          15.
      9,         -30.,         -15.
     10,         -50.,         -15.
     11,         -50.,          15.
     12,          50.,         -15.
     13,          50.,          15.
     14,          -8.,          12.
     15,          -6.,           9.
     16,          -4.,           6.
     17,          -2.,           3.
     18,   -13.333333,          15.
     19,   -16.666666,          15.
     20,         -20.,          15.
     21,   -23.333334,          15.
     22,   -26.666666,          15.
     23,         -28.,          12.
     24,         -26.,           9.
     25,         -24.,           6.
     26,         -22.,           3.
     27,         -20.,           0.
     28,         -18.,          -3.
     29,         -16.,          -6.
     30,         -14.,          -9.
     31,         -12.,         -12.
     32,         -10.,       -11.25
     33,         -10.,         -7.5
     34,         -10.,        -3.75
     35,         -10.,           0.
     36,         -10.,         3.75
     37,         -10.,          7.5
     38,         -10.,        11.25
     39,  -6.66666651,          15.
     40,  -3.33333325,          15.
     41,           0.,          15.
     42,   3.33333325,          15.
     43,   6.66666651,          15.
     44,          10.,        11.25
     45,          10.,          7.5
     46,          10.,         3.75
     47,          10.,           0.
     48,          10.,        -3.75
     49,          10.,         -7.5
     50,          10.,       -11.25
     51,    26.666666,         -15.
     52,    23.333334,         -15.
     53,          20.,         -15.
     54,    16.666666,         -15.
     55,    13.333333,         -15.
     56,          30.,        11.25
     57,          30.,          7.5
     58,          30.,         3.75
     59,          30.,           0.
     60,          30.,        -3.75
     61,          30.,         -7.5
     62,          30.,       -11.25
     63,          12.,         -12.
     64,          14.,          -9.
     65,          16.,          -6.
     66,          18.,          -3.
     67,          20.,           0.
     68,          22.,           3.
     69,          24.,           6.
     70,          26.,           9.
     71,          28.,          12.
     72,           2.,          -3.
     73,           4.,          -6.
     74,           6.,          -9.
     75,           8.,         -12.
     76,          -8.,         -12.
     77,          -6.,          -9.
     78,          -4.,          -6.
     79,          -2.,          -3.
     80,   -13.333333,         -15.
     81,   -16.666666,         -15.
     82,         -20.,         -15.
     83,   -23.333334,         -15.
     84,   -26.666666,         -15.
     85,  -33.3333321,         -15.
     86,  -36.6666679,         -15.
     87,         -40.,         -15.
     88,  -43.3333321,         -15.
     89,  -46.6666679,         -15.
     90,         -50.,       -11.25
     91,         -50.,         -7.5
     92,         -50.,        -3.75
     93,         -50.,           0.
     94,         -50.,         3.75
     95,         -50.,          7.5
     96,         -50.,        11.25
     97,         -32.,         -12.
     98,         -34.,          -9.
     99,         -36.,          -6.
    100,         -38.,          -3.
    101,         -40.,           0.
    102,         -42.,           3.
    103,         -44.,           6.
    104,         -46.,           9.
    105,         -48.,          12.
    106,         -30.,        11.25
    107,         -30.,          7.5
    108,         -30.,         3.75
    109,         -30.,           0.
    110,         -30.,        -3.75
    111,         -30.,         -7.5
    112,         -30.,       -11.25
    113,  -46.6666679,          15.
    114,  -43.3333321,          15.
    115,         -40.,          15.
    116,  -36.6666679,          15.
    117,  -33.3333321,          15.
    118,           2.,           3.
    119,           4.,           6.
    120,           6.,           9.
    121,           8.,          12.
    122,   6.66666651,         -15.
    123,   3.33333325,         -15.
    124,           0.,         -15.
    125,  -3.33333325,         -15.
    126,  -6.66666651,         -15.
    127,   46.6666679,         -15.
    128,   43.3333321,         -15.
    129,          40.,         -15.
    130,   36.6666679,         -15.
    131,   33.3333321,         -15.
    132,          50.,        11.25
    133,          50.,          7.5
    134,          50.,         3.75
    135,          50.,           0.
    136,          50.,        -3.75
    137,          50.,         -7.5
    138,          50.,       -11.25
    139,          32.,         -12.
    140,          34.,          -9.
    141,          36.,          -6.
    142,          38.,          -3.
    143,          40.,           0.
    144,          42.,           3.
    145,          44.,           6.
    146,          46.,           9.
    147,          48.,          12.
    148,   33.3333321,          15.
    149,   36.6666679,          15.
    150,          40.,          15.
    151,   43.3333321,          15.
    152,   46.6666679,          15.
    153,    13.333333,          15.
    154,    16.666666,          15.
    155,          20.,          15.
    156,    23.333334,          15.
    157,    26.666666,          15.
*Element, type=B21
1,  2, 14
2, 14, 15
3, 15, 16
4, 16, 17
5, 17,  1
 6,  2, 18
 7, 18, 19
 8, 19, 20
 9, 20, 21
10, 21, 22
11, 22,  3
12,  3, 23
13, 23, 24
14, 24, 25
15, 25, 26
16, 26, 27
17, 27, 28
18, 28, 29
19, 29, 30
20, 30, 31
21, 31,  4
22,  4, 32
23, 32, 33
24, 33, 34
25, 34, 35
26, 35, 36
27, 36, 37
28, 37, 38
29, 38,  2
30,  2, 39
31, 39, 40
32, 40, 41
33, 41, 42
34, 42, 43
35, 43,  5
36,  5, 44
37, 44, 45
38, 45, 46
39, 46, 47
40, 47, 48
41, 48, 49
42, 49, 50
43, 50,  6
44,  7, 51
45, 51, 52
46, 52, 53
47, 53, 54
48, 54, 55
49, 55,  6
50,  8, 56
51, 56, 57
52, 57, 58
53, 58, 59
54, 59, 60
55, 60, 61
56, 61, 62
57, 62,  7
58,  6, 63
59, 63, 64
60, 64, 65
61, 65, 66
62, 66, 67
63, 67, 68
64, 68, 69
65, 69, 70
66, 70, 71
67, 71,  8
68,  1, 72
69, 72, 73
70, 73, 74
71, 74, 75
72, 75,  6
73,  4, 76
74, 76, 77
75, 77, 78
76, 78, 79
77, 79,  1
78,  4, 80
79, 80, 81
80, 81, 82
81, 82, 83
82, 83, 84
83, 84,  9
84,  9, 85
85, 85, 86
86, 86, 87
87, 87, 88
88, 88, 89
89, 89, 10
90, 10, 90
91, 90, 91
92, 91, 92
93, 92, 93
94, 93, 94
95, 94, 95
96, 95, 96
97, 96, 11
 98,   9,  97
 99,  97,  98
100,  98,  99
101,  99, 100
102, 100, 101
103, 101, 102
104, 102, 103
105, 103, 104
106, 104, 105
107, 105,  11
108,   3, 106
109, 106, 107
110, 107, 108
111, 108, 109
112, 109, 110
113, 110, 111
114, 111, 112
115, 112,   9
116,  11, 113
117, 113, 114
118, 114, 115
119, 115, 116
120, 116, 117
121, 117,   3
122,   1, 118
123, 118, 119
124, 119, 120
125, 120, 121
126, 121,   5
127,   6, 122
128, 122, 123
129, 123, 124
130, 124, 125
131, 125, 126
132, 126,   4
133,  12, 127
134, 127, 128
135, 128, 129
136, 129, 130
137, 130, 131
138, 131,   7
139,  13, 132
140, 132, 133
141, 133, 134
142, 134, 135
143, 135, 136
144, 136, 137
145, 137, 138
146, 138,  12
147,   7, 139
148, 139, 140
149, 140, 141
150, 141, 142
151, 142, 143
152, 143, 144
153, 144, 145
154, 145, 146
155, 146, 147
156, 147,  13
157,   8, 148
158, 148, 149
159, 149, 150
160, 150, 151
161, 151, 152
162, 152,  13
163,   5, 153
164, 153, 154
165, 154, 155
166, 155, 156
167, 156, 157
168, 157,   8
*Nset, nset=Set-1, generate
   1,  157,    1
*Elset, elset=Set-1, generate
   1,  168,    1
*Nset, nset=Set-2, generate
   1,  157,    1
*Elset, elset=Set-2, generate
   1,  168,    1
** Section: Section-1  Profile: Profile-1
*Beam Section, elset=Set-1, material=Material-1, poisson = 0.3, temperature=GRADIENTS, section=BOX
0.005, 0.005, 0.0005, 0.0005, 0.0005, 0.0005
0.,0.,-1.
*End Part
**  
**
** ASSEMBLY
**
*Assembly, name=Assembly
**  
*Instance, name=Part-1-1, part=Part-1
*End Instance
**  
*Nset, nset=Set-1, instance=Part-1-1
 10, 12
*Nset, nset=Set-2, instance=Part-1-1
 4, 6
*End Assembly
** 
** MATERIALS
** 
*Material, name=Material-1
*Elastic
 2.06e+11, 0.3
** 
** BOUNDARY CONDITIONS
** 
** Name: BC-1 Type: Symmetry/Antisymmetry/Encastre
*Boundary
Set-1, ENCASTRE
** ----------------------------------------------------------------
** 
** STEP: Step-1
** 
*Step, name=Step-1, nlgeom=NO
*Static
1., 1., 1e-05, 1.
** 
** LOADS
** 
** Name: Load-1   Type: Concentrated force
*Cload
Set-2, 2, -5.
** 
** OUTPUT REQUESTS
** 
*Restart, write, frequency=0
** 
** FIELD OUTPUT: F-Output-1
** 
*Output, field, variable=PRESELECT
** 
** HISTORY OUTPUT: H-Output-1
** 
*Output, history, variable=PRESELECT
*End Step
